%%MatrixMarket matrix coordinate real general
4000 4000 11998
1 1 4.0745385689646586e-5
2 1 0.006225571057705652
1 2 0.006225571057705641
2 2 0.9999612065393984
3 2 -0.00018478710433906688
2 3 -0.00018478710433909295
3 3 2.0445422349316204e-6
4 3 1.026138563619985e-6
3 4 1.0261385636191078e-6
4 4 1.965115434739002e-6
5 4 -1.0130500071224739e-6
4 5 -1.0130500071217569e-6
5 5 2.013771485428491e-6
6 5 -1.0026022215651813e-6
5 6 -1.0026022215661912e-6
6 6 2.021372976473047e-6
7 6 -1.0028772610611572e-6
6 7 -1.0028772610605435e-6
7 7 1.989082979355749e-6
8 7 -1.0084382997841438e-6
7 8 -1.008438299783694e-6
8 8 1.9904606451496226e-6
9 8 1.0017942144214515e-6
8 9 1.0017942144204854e-6
9 9 2.0075721969642784e-6
10 9 -9.984259080835581e-7
9 10 -9.984259080840134e-7
10 10 2.0084157949284206e-6
11 10 9.996640110171333e-7
10 11 9.996640110186471e-7
11 11 1.9938440783580026e-6
12 11 1.0030758449213637e-6
11 12 1.0030758449198943e-6
12 12 2.0291756910021997e-6
13 12 -1.0054864955539426e-6
12 13 -1.0054864955547934e-6
13 13 2.0159557732838223e-6
14 13 -1.003778662388716e-6
13 14 -1.003778662389041e-6
14 14 1.9871526244535865e-6
15 14 -9.960489447595804e-7
14 15 -9.960489447581605e-7
15 15 1.985002053180664e-6
16 15 -9.916945145786145e-7
15 16 -9.916945145791643e-7
16 16 1.984151978756455e-6
17 16 9.983103440951297e-7
16 17 9.983103440947505e-7
17 17 1.9850238239813065e-6
18 17 1.0025486467053692e-6
17 18 1.0025486467070485e-6
18 18 2.0131588538673903e-6
19 18 -1.000483322790568e-6
18 19 -1.000483322788898e-6
19 19 1.987784622308883e-6
20 19 9.953459206755773e-7
19 20 9.95345920675246e-7
20 20 1.9798488064386236e-6
21 20 -1.002726110239582e-6
20 21 -1.00272611023924e-6
21 21 2.044865793908424e-6
22 21 -9.914337711653617e-7
21 22 -9.914337711663737e-7
22 22 1.9625763318982343e-6
23 22 9.948416660568956e-7
22 23 9.948416660567454e-7
23 23 2.013572245343648e-6
24 23 1.0091781776350574e-6
23 24 1.0091781776366149e-6
24 24 2.0025626922163516e-6
25 24 -9.966548392901485e-7
24 25 -9.966548392898203e-7
25 25 1.9994615976545824e-6
26 25 1.0032150913241017e-6
25 26 1.0032150913245055e-6
26 26 1.9897258714049158e-6
27 26 -9.93743865222159e-7
26 27 -9.937438652216796e-7
27 27 1.9847386447712055e-6
28 27 -1.008490166519389e-6
27 28 -1.0084901665196052e-6
28 28 2.0159427825681084e-6
29 28 -1.0011890680302327e-6
28 29 -1.0011890680311488e-6
29 29 2.0028520812006156e-6
30 29 -9.794533928847372e-7
29 30 -9.79453392884689e-7
30 30 2.0043462112748732e-6
31 30 1.0066453122992545e-6
30 31 1.00664531229874e-6
31 31 2.001631295424998e-6
32 31 -9.865780614777602e-7
31 32 -9.865780614769424e-7
32 32 1.9861282499517828e-6
33 32 -9.964177068886216e-7
32 33 -9.96417706887299e-7
33 33 2.000909731990859e-6
34 33 -1.013779042671077e-6
33 34 -1.0137790426709047e-6
34 34 2.0480785121040803e-6
35 34 -1.008642248875357e-6
34 35 -1.0086422488761822e-6
35 35 1.9913870485170197e-6
36 35 -1.0029508439416995e-6
35 36 -1.0029508439425745e-6
36 36 2.01762156624135e-6
37 36 -9.878581546962312e-7
36 37 -9.878581546955523e-7
37 37 1.9820872531662034e-6
38 37 -1.00263897991397e-6
37 38 -1.002638979913025e-6
38 38 1.99500951035997e-6
39 38 -9.930689973495114e-7
38 39 -9.930689973504662e-7
39 39 1.993469803703274e-6
40 39 9.93175220603955e-7
39 40 9.931752206034294e-7
40 40 2.052736447681015e-6
41 40 -1.0131260018214537e-6
40 41 -1.013126001822792e-6
41 41 1.961865878789012e-6
42 41 -9.86131198923722e-7
41 42 -9.861311989218686e-7
42 42 2.0267786433966163e-6
43 42 -1.0053808419371073e-6
42 43 -1.005380841937052e-6
43 43 1.983308715733677e-6
44 43 -9.87781220435198e-7
43 44 -9.877812204352379e-7
44 44 1.9997123412419997e-6
45 44 1.0129381623048825e-6
44 45 1.0129381623052307e-6
45 45 1.9968999196623566e-6
46 45 1.0046556929764864e-6
45 46 1.0046556929762109e-6
46 46 2.004314021026602e-6
47 46 -9.925371720031181e-7
46 47 -9.92537172001706e-7
47 47 1.999096523589325e-6
48 47 -1.017809039811114e-6
47 48 -1.0178090398111337e-6
48 48 1.9813702749038974e-6
49 48 -9.921978096475982e-7
48 49 -9.921978096479558e-7
49 49 1.9726241959003966e-6
50 49 -9.994051490806315e-7
49 50 -9.994051490803896e-7
50 50 2.013015520462544e-6
51 50 -9.966363313885242e-7
50 51 -9.966363313885237e-7
51 51 1.9901484140299798e-6
52 51 -9.911778978361017e-7
51 52 -9.9117789783711e-7
52 52 1.9770119954761027e-6
53 52 1.0004665928788548e-6
52 53 1.0004665928784008e-6
53 53 2.0205742437702274e-6
54 53 -9.951526694959193e-7
53 54 -9.95152669496884e-7
54 54 2.010319463575147e-6
55 54 1.0116760114535646e-6
54 55 1.0116760114542975e-6
55 55 2.0246434107268557e-6
56 55 9.81832089371393e-7
55 56 9.818320893720661e-7
56 56 1.9960068046595686e-6
57 56 1.023921520467226e-6
56 57 1.023921520466851e-6
57 57 2.0152775324716002e-6
58 57 9.866012033733044e-7
57 58 9.866012033741434e-7
58 58 1.995592228939513e-6
59 58 -9.946984586008565e-7
58 59 -9.94698458601036e-7
59 59 2.026965466714953e-6
60 59 9.968449105543236e-7
59 60 9.968449105537683e-7
60 60 1.9975168947185e-6
61 60 -1.0030914148436355e-6
60 61 -1.0030914148440878e-6
61 61 1.9840614682462085e-6
62 61 -9.795849638452536e-7
61 62 -9.79584963844609e-7
62 62 2.0172571550305256e-6
63 62 1.0247010272694259e-6
62 63 1.024701027269436e-6
63 63 2.00166021631089e-6
64 63 9.831917875107197e-7
63 64 9.831917875099089e-7
64 64 1.991469845804863e-6
65 64 -1.0053427773123385e-6
64 65 -1.005342777311512e-6
65 65 2.0152924367656586e-6
66 65 1.0026900824665224e-6
65 66 1.0026900824662764e-6
66 66 1.99409372751108e-6
67 66 -1.0032922898720175e-6
66 67 -1.003292289871455e-6
67 67 2.000259427212902e-6
68 67 -1.004480341990812e-6
67 68 -1.0044803419896325e-6
68 68 2.0055949099895026e-6
69 68 -9.990845618422261e-7
68 69 -9.990845618434048e-7
69 69 1.9902600022795846e-6
70 69 1.0015182102034362e-6
69 70 1.0015182102022808e-6
70 70 2.0091381022434143e-6
71 70 9.81385396868368e-7
70 71 9.813853968703744e-7
71 71 1.9693587289960145e-6
72 71 -1.0008843245895977e-6
71 72 -1.0008843245892848e-6
72 72 2.0028346570663243e-6
73 72 1.0024703358204658e-6
72 73 1.002470335820907e-6
73 73 1.9931544073891944e-6
74 73 -9.930435730282238e-7
73 74 -9.930435730291331e-7
74 74 2.000354894386021e-6
75 74 -1.002267727821986e-6
74 75 -1.0022677278212876e-6
75 75 2.012223446937955e-6
76 75 1.0073280787660114e-6
75 76 1.0073280787657456e-6
76 76 2.0190037834327707e-6
77 76 -9.969824430180063e-7
76 77 -9.969824430197216e-7
77 77 1.9578554827362262e-6
78 77 9.894960453033307e-7
77 78 9.894960453024786e-7
78 78 2.000546960972284e-6
79 78 1.0110088799154618e-6
78 79 1.0110088799155874e-6
79 79 2.0211189545084865e-6
80 79 9.91847060982158e-7
79 80 9.918470609820788e-7
80 80 1.9830806308112246e-6
81 80 9.967028831515318e-7
80 81 9.967028831517014e-7
81 81 1.9998171846421217e-6
82 81 9.988331237978117e-7
81 82 9.988331237991318e-7
82 82 1.9865603201678152e-6
83 82 9.95578663199516e-7
82 83 9.955786631980728e-7
83 83 2.0403625995278755e-6
84 83 1.0038855850393726e-6
83 84 1.0038855850397607e-6
84 84 1.9761433934374283e-6
85 84 -9.963596061404816e-7
84 85 -9.96359606140243e-7
85 85 2.0021121594555847e-6
86 85 9.986307252118968e-7
85 86 9.986307252114982e-7
86 86 2.009065548951395e-6
87 86 1.0049840209716344e-6
86 87 1.0049840209731836e-6
87 87 2.0287443111618723e-6
88 87 1.0009455574656805e-6
87 88 1.000945557464538e-6
88 88 1.98532695589404e-6
89 88 9.948570010810892e-7
88 89 9.948570010811155e-7
89 89 2.0111101259774628e-6
90 89 -9.984353958608891e-7
89 90 -9.984353958612813e-7
90 90 1.983001645438674e-6
91 90 -9.953470288913103e-7
90 91 -9.953470288915993e-7
91 91 2.001984488027838e-6
92 91 -1.0118736913046269e-6
91 92 -1.0118736913039709e-6
92 92 2.0046486364938144e-6
93 92 -1.0019101325075354e-6
92 93 -1.0019101325070432e-6
93 93 1.9794881115597435e-6
94 93 9.917301953092038e-7
93 94 9.917301953090968e-7
94 94 2.0025328315025515e-6
95 94 9.987618677669379e-7
94 95 9.987618677670675e-7
95 95 1.9967854130921356e-6
96 95 1.007517374052757e-6
95 96 1.0075173740530732e-6
96 96 1.9876264511070736e-6
97 96 9.944807409062102e-7
96 97 9.944807409055294e-7
97 97 1.986888441153211e-6
98 97 9.86147764429733e-7
97 98 9.861477644292812e-7
98 98 2.0055900080465932e-6
99 98 -1.0007550795279254e-6
98 99 -1.0007550795269701e-6
99 99 2.0146359310157296e-6
100 99 1.0141775001097546e-6
99 100 1.0141775001103069e-6
100 100 2.0215067276685025e-6
101 100 -1.0092323634660576e-6
100 101 -1.0092323634657821e-6
101 101 1.992086731731095e-6
102 101 -9.923245085226926e-7
101 102 -9.923245085235769e-7
102 102 1.9806387387105673e-6
103 102 9.967484807756529e-7
102 103 9.967484807758684e-7
103 103 2.0002797050217583e-6
104 103 1.0045212757843829e-6
103 104 1.004521275783982e-6
104 104 1.9802774291690314e-6
105 104 -9.916876791930905e-7
104 105 -9.916876791946506e-7
105 105 2.0178176211754233e-6
106 105 1.0033918003877009e-6
105 106 1.0033918003856424e-6
106 106 1.9812406161049107e-6
107 106 -9.909259501304327e-7
106 107 -9.90925950131592e-7
107 107 2.0009676971992056e-6
108 107 -1.0021979604871233e-6
107 108 -1.0021979604866504e-6
108 108 2.0227110640791815e-6
109 108 9.948798975622154e-7
108 109 9.94879897562507e-7
109 109 2.0040745976818468e-6
110 109 9.900989366212263e-7
109 110 9.90098936621836e-7
110 110 2.0123688913727025e-6
111 110 1.0097593688685559e-6
110 111 1.0097593688692005e-6
111 111 2.0085345196717216e-6
112 111 -9.99651493575675e-7
111 112 -9.99651493574628e-7
112 112 1.9972146730319982e-6
113 112 -9.847939380109391e-7
112 113 -9.8479393801039e-7
113 113 1.9651413497587764e-6
114 113 -9.893770890211108e-7
113 114 -9.893770890214196e-7
114 114 1.9973636658775007e-6
115 114 1.022259428930159e-6
114 115 1.0222594289308883e-6
115 115 2.022701578523531e-6
116 115 9.86771228568138e-7
115 116 9.867712285669298e-7
116 116 2.0075913328457717e-6
117 116 9.982923191283943e-7
116 117 9.982923191271253e-7
117 117 1.989361801927351e-6
118 117 1.0087874639916896e-6
117 118 1.0087874639921447e-6
118 118 2.0051320795071153e-6
119 118 9.980268129314371e-7
118 119 9.980268129315015e-7
119 119 2.0029920761006845e-6
120 119 9.97051821929734e-7
119 120 9.970518219298982e-7
120 120 1.970934363544062e-6
121 120 -9.946461720084375e-7
120 121 -9.946461720083479e-7
121 121 2.028726521148192e-6
122 121 -1.008207346326192e-6
121 122 -1.0082073463275956e-6
122 122 1.988362791950549e-6
123 122 9.931503074868925e-7
122 123 9.931503074865314e-7
123 123 1.9869023420918165e-6
124 123 -1.0114224000789387e-6
123 124 -1.011422400079681e-6
124 124 2.008602320016802e-6
125 124 -9.994936275721957e-7
124 125 -9.994936275725204e-7
125 125 1.991921491969708e-6
126 125 9.90165783767642e-7
125 126 9.901657837689983e-7
126 126 1.9841232143403848e-6
127 126 1.0095344821260946e-6
126 127 1.0095344821248609e-6
127 127 2.0190574380120743e-6
128 127 9.962790647916092e-7
127 128 9.962790647924169e-7
128 128 1.980648159054798e-6
129 128 1.0089893864242193e-6
128 129 1.0089893864236222e-6
129 129 1.9831925991945832e-6
130 129 9.773378861556376e-7
129 130 9.773378861562178e-7
130 130 2.029575775724955e-6
131 130 1.0099522125723911e-6
130 131 1.009952212571953e-6
131 131 2.0080913983577594e-6
132 131 9.975180368297558e-7
131 132 9.975180368292658e-7
132 132 1.9597829612583715e-6
133 132 -9.933777375396497e-7
132 133 -9.933777375393208e-7
133 133 2.0240067111426076e-6
134 133 9.98013785585124e-7
133 134 9.98013785586626e-7
134 134 1.994355101628048e-6
135 134 -9.97463279498295e-7
134 135 -9.97463279498238e-7
135 135 1.9900001989508335e-6
136 135 -9.933828394413838e-7
135 136 -9.933828394414897e-7
136 136 2.011505326913805e-6
137 136 -9.965698781894613e-7
136 137 -9.965698781895472e-7
137 137 2.024292719768186e-6
138 137 1.0017346861941447e-6
137 138 1.0017346861943476e-6
138 138 1.9889042154371815e-6
139 138 9.942435355486853e-7
138 139 9.942435355489748e-7
139 139 1.9852743586348218e-6
140 139 9.955739543535084e-7
139 140 9.955739543540206e-7
140 140 2.0069944028489005e-6
141 140 -1.0221273045431506e-6
140 141 -1.0221273045433457e-6
141 141 2.01801754580634e-6
142 141 -9.885081557336944e-7
141 142 -9.885081557347805e-7
142 142 1.9851716330760085e-6
143 142 1.0017675215709666e-6
142 143 1.0017675215700118e-6
143 143 1.9892820821635834e-6
144 143 -9.926072125269218e-7
143 144 -9.926072125272701e-7
144 144 1.990823900839324e-6
145 144 1.0058279417544738e-6
144 145 1.0058279417549454e-6
145 145 2.007713833277612e-6
146 145 1.0109030292830096e-6
145 146 1.0109030292835725e-6
146 146 2.0003383570690233e-6
147 146 9.918730320149258e-7
146 147 9.91873032013476e-7
147 147 2.0091236074666933e-6
148 147 -1.0110185624443532e-6
147 148 -1.0110185624438835e-6
148 148 2.017303892880754e-6
149 148 -9.948272796602155e-7
148 149 -9.9482727966008e-7
149 149 1.998229782972835e-6
150 149 9.945557612316594e-7
149 150 9.945557612314406e-7
150 150 1.9902387813576618e-6
151 150 9.9722870582433e-7
150 151 9.972287058249332e-7
151 151 2.0009121026617363e-6
152 151 -1.0028521151815598e-6
151 152 -1.002852115181671e-6
152 152 1.9838118811872038e-6
153 152 9.977665271007567e-7
152 153 9.97766527100836e-7
153 153 2.0012038125242828e-6
154 153 1.0017022591115383e-6
153 154 1.0017022591112922e-6
154 154 2.006989961144442e-6
155 154 9.91117052988588e-7
154 155 9.911170529888857e-7
155 155 1.9779685088235736e-6
156 155 9.93729317371696e-7
155 156 9.937293173716211e-7
156 156 2.001955287348364e-6
157 156 1.0055295593723147e-6
156 157 1.0055295593732026e-6
157 157 1.98915719499641e-6
158 157 9.97597355322939e-7
157 158 9.975973553222704e-7
158 158 1.982608705169991e-6
159 158 9.835657119457695e-7
158 159 9.835657119455721e-7
159 159 2.0072140045037085e-6
160 159 1.014715875084438e-6
159 160 1.0147158750829172e-6
160 160 2.0171225231585737e-6
161 160 -1.0130980020927154e-6
160 161 -1.013098002093286e-6
161 161 1.98904821929845e-6
162 161 -9.85275912565681e-7
161 162 -9.852759125665096e-7
162 162 1.9724310105911583e-6
163 162 -1.0054579654499408e-6
162 163 -1.0054579654509561e-6
163 163 2.0408924788803394e-6
164 163 9.906836057603699e-7
163 164 9.906836057606595e-7
164 164 1.998140708356982e-6
165 164 -1.0062007595246208e-6
164 165 -1.0062007595236772e-6
165 165 1.971533628008627e-6
166 165 -9.962826440523664e-7
165 166 -9.96282644054254e-7
166 166 2.017550217521228e-6
167 166 9.963698513839178e-7
166 167 9.963698513821208e-7
167 167 2.016845961801815e-6
168 167 9.924840808592477e-7
167 168 9.92484080859411e-7
168 168 2.0045874279414573e-6
169 168 1.0014953861696692e-6
168 169 1.0014953861693296e-6
169 169 1.98929651253904e-6
170 169 9.91567780909271e-7
169 170 9.915677809089377e-7
170 170 2.016335064940736e-6
171 170 -1.011133582198187e-6
170 171 -1.0111335821982913e-6
171 171 1.9861221222484224e-6
172 171 -1.0036233384891433e-6
171 172 -1.0036233384895691e-6
172 172 1.993833262379773e-6
173 172 -1.0066905115338273e-6
172 173 -1.006690511533125e-6
173 173 2.0130836880327903e-6
174 173 1.0086375787835333e-6
173 174 1.0086375787837182e-6
174 174 1.9574148378298996e-6
175 174 9.988690237241592e-7
174 175 9.988690237238833e-7
175 175 2.0253131272566605e-6
176 175 -9.988652923390569e-7
175 176 -9.988652923394471e-7
176 176 2.014745777739638e-6
177 176 -9.983965727733e-7
176 177 -9.983965727731512e-7
177 177 2.00545789809472e-6
178 177 9.804456306798275e-7
177 178 9.804456306792102e-7
178 178 1.986200005725004e-6
179 178 -1.010333214805709e-6
178 179 -1.0103332148050312e-6
179 179 2.0000931942255664e-6
180 179 -9.82666241158151e-7
179 180 -9.826662411578615e-7
180 180 1.963292553217477e-6
181 180 -1.0056080182217533e-6
180 181 -1.0056080182211762e-6
181 181 2.0459102038687157e-6
182 181 -1.0030498775463212e-6
181 182 -1.0030498775469168e-6
182 182 2.040171098175796e-6
183 182 1.0053770940311256e-6
182 183 1.0053770940310345e-6
183 183 1.9806813843977482e-6
184 183 -9.831877649901047e-7
183 184 -9.831877649899982e-7
184 184 1.9930271905012465e-6
185 184 1.0023689107094456e-6
184 185 1.002368910710191e-6
185 185 1.9995631019581143e-6
186 185 9.975685875567531e-7
185 186 9.975685875572266e-7
186 186 1.971474156097647e-6
187 186 1.0032900816280727e-6
186 187 1.0032900816268204e-6
187 187 2.03603183948395e-6
188 187 -9.9999476388848e-7
187 188 -9.999947638892534e-7
188 188 1.9948737268409122e-6
189 188 -9.99536034795631e-7
188 189 -9.995360347946653e-7
189 189 1.9980429714575637e-6
190 189 9.93299820929825e-7
189 190 9.932998209279304e-7
190 190 1.9890572460415134e-6
191 190 -9.984492823385238e-7
190 191 -9.984492823392584e-7
191 191 1.99235133956285e-6
192 191 1.0037149013908796e-6
191 192 1.003714901390801e-6
192 192 1.978025680625218e-6
193 192 9.965746443087952e-7
192 193 9.965746443102248e-7
193 193 2.0419362856451262e-6
194 193 9.88496672972912e-7
193 194 9.884966729725202e-7
194 194 1.952552937253665e-6
195 194 1.0155467712185262e-6
194 195 1.0155467712186658e-6
195 195 2.022121640965562e-6
196 195 -9.883951322029773e-7
195 196 -9.883951322025525e-7
196 196 2.000348344929854e-6
197 196 9.904530153181591e-7
196 197 9.904530153177327e-7
197 197 1.995689135101971e-6
198 197 -1.008241310394138e-6
197 198 -1.008241310394511e-6
198 198 2.019278600082963e-6
199 198 -9.981442673297033e-7
198 199 -9.981442673294928e-7
199 199 1.983159796533333e-6
200 199 -9.945568221870529e-7
199 200 -9.945568221863727e-7
200 200 2.030283126238086e-6
201 200 -1.0105403724459489e-6
200 201 -1.0105403724486511e-6
201 201 1.9928455765836103e-6
202 201 9.969234306402157e-7
201 202 9.969234306412046e-7
202 202 1.9766653238796024e-6
203 202 -9.892733348762317e-7
202 203 -9.892733348767723e-7
203 203 1.999431951595417e-6
204 203 -1.0018574453538478e-6
203 204 -1.001857445352553e-6
204 204 2.013719679286218e-6
205 204 -1.0068857605547675e-6
204 205 -1.0068857605547946e-6
205 205 2.018271769428331e-6
206 205 -9.991913846503705e-7
205 206 -9.991913846500368e-7
206 206 2.0126427125788555e-6
207 206 9.926095923316768e-7
206 207 9.926095923300484e-7
207 207 1.975348706696617e-6
208 207 -9.905690555783793e-7
207 208 -9.905690555785114e-7
208 208 2.0114723333689333e-6
209 208 1.0054402105954043e-6
208 209 1.0054402105963562e-6
209 209 1.9749216554018856e-6
210 209 -1.0073128377992933e-6
209 210 -1.0073128377994104e-6
210 210 2.0238898311737983e-6
211 210 -1.0019216539314654e-6
210 211 -1.0019216539320356e-6
211 211 1.994292567747107e-6
212 211 9.978361259206184e-7
211 212 9.978361259203956e-7
212 212 1.985542615280034e-6
213 212 -9.773539061130783e-7
212 213 -9.773539061137278e-7
213 213 1.969977418752966e-6
214 213 -1.0040484639229106e-6
213 214 -1.0040484639235314e-6
214 214 2.027020819104984e-6
215 214 1.0119434885791704e-6
214 215 1.011943488578364e-6
215 215 2.0300054940265205e-6
216 215 -1.0040747214966054e-6
215 216 -1.004074721498107e-6
216 216 2.007215494141077e-6
217 216 -9.817506611142547e-7
216 217 -9.817506611139724e-7
217 217 1.9813480611864266e-6
218 217 9.91911889382812e-7
217 218 9.919118893817734e-7
218 218 1.9569626885201666e-6
219 218 9.985785199074173e-7
218 219 9.985785199070678e-7
219 219 2.0502055455912917e-6
220 219 -9.941584244939215e-7
219 220 -9.94158424493489e-7
220 220 2.0005077384717385e-6
221 220 1.0016632063117742e-6
220 221 1.001663206312104e-6
221 221 2.0078052200146045e-6
222 221 9.86382322264841e-7
221 222 9.863823222642932e-7
222 222 1.981048023984144e-6
223 222 1.0232838490062975e-6
222 223 1.0232838490055682e-6
223 223 2.0166768338661016e-6
224 223 9.913240329341692e-7
223 224 9.913240329344752e-7
224 224 1.9711079630113615e-6
225 224 9.981572989006937e-7
224 225 9.981572989018382e-7
225 225 2.0081971642269303e-6
226 225 -9.94090287618744e-7
225 226 -9.94090287618858e-7
226 226 1.988925780508851e-6
227 226 -9.972830538110275e-7
226 227 -9.97283053809648e-7
227 227 2.0167616833451705e-6
228 227 -1.010482934535425e-6
227 228 -1.010482934537386e-6
228 228 2.002684383064879e-6
229 228 9.939197449025642e-7
228 229 9.93919744902609e-7
229 229 2.0079404122897767e-6
230 229 -1.0099745658269282e-6
229 230 -1.0099745658257606e-6
230 230 1.9817899148513938e-6
231 230 -9.794945106293384e-7
230 231 -9.794945106299936e-7
231 231 2.0140144003627358e-6
232 231 1.0041547311849345e-6
231 232 1.0041547311850323e-6
232 232 1.985014578700181e-6
233 232 1.0041213515772785e-6
232 233 1.0041213515760452e-6
233 233 1.9943607310829985e-6
234 233 -1.0029046179408697e-6
233 234 -1.0029046179426806e-6
234 234 1.995288105691858e-6
235 234 1.0023458819506516e-6
234 235 1.0023458819508786e-6
235 235 2.0040595675643437e-6
236 235 -9.819159737293685e-7
235 236 -9.819159737301251e-7
236 236 2.0292383544771192e-6
237 236 -9.914417893961186e-7
236 237 -9.914417893958892e-7
237 237 1.9680175108259654e-6
238 237 1.0002385032233242e-6
237 238 1.000238503223517e-6
238 238 2.006319428117463e-6
239 238 -1.001396620361179e-6
238 239 -1.0013966203610203e-6
239 239 2.0024084764174266e-6
240 239 -1.0101282179310258e-6
239 240 -1.0101282179330661e-6
240 240 2.011695895096545e-6
241 240 -9.793822506421468e-7
240 241 -9.793822506424127e-7
241 241 1.9948309718397787e-6
242 241 -9.986819520138456e-7
241 242 -9.986819520133008e-7
242 242 2.004380967644515e-6
243 242 -1.0088293761555991e-6
242 243 -1.008829376155679e-6
243 243 2.003843272088984e-6
244 243 -9.838796701422147e-7
243 244 -9.83879670141806e-7
244 244 1.9814089875431356e-6
245 244 -1.0060035647934475e-6
244 245 -1.0060035647942018e-6
245 245 2.0168112725983273e-6
246 245 -9.93887961944239e-7
245 246 -9.938879619450857e-7
246 246 1.9950669209548865e-6
247 246 -9.899385477523658e-7
246 247 -9.899385477536247e-7
247 247 1.985972378816884e-6
248 247 -9.93890676805835e-7
247 248 -9.938906768052806e-7
248 248 2.0105574145826974e-6
249 248 -9.954151783407188e-7
248 249 -9.954151783401735e-7
249 249 1.998753074246342e-6
250 249 1.0095779789540748e-6
249 250 1.0095779789552475e-6
250 250 2.004367802725124e-6
251 250 -9.89594764262345e-7
250 251 -9.89594764261105e-7
251 251 2.018376055922965e-6
252 251 -1.0088128196709604e-6
251 252 -1.0088128196712198e-6
252 252 2.002844773689374e-6
253 252 -9.959927805360106e-7
252 253 -9.959927805359943e-7
253 253 2.0066032076615233e-6
254 253 -9.884786089176207e-7
253 254 -9.884786089172404e-7
254 254 2.014029489746069e-6
255 254 -1.0051173483487628e-6
254 255 -1.0051173483489701e-6
255 255 1.9782190525834177e-6
256 255 -9.860623488974142e-7
255 256 -9.860623488976777e-7
256 256 2.010389193707175e-6
257 256 -1.0078223642776387e-6
256 257 -1.0078223642763438e-6
257 257 1.9919381316251754e-6
258 257 -1.0074726368973695e-6
257 258 -1.0074726368980954e-6
258 258 2.0070003734316852e-6
259 258 1.0105938748365153e-6
258 259 1.0105938748362775e-6
259 259 2.006696402455887e-6
260 259 9.925039366703746e-7
259 260 9.92503936670346e-7
260 260 1.9942673747578973e-6
261 260 -1.0020680607563622e-6
260 261 -1.0020680607559867e-6
261 261 2.0000729866750422e-6
262 261 -9.903516169534013e-7
261 262 -9.903516169521969e-7
262 262 1.986462094683621e-6
263 262 -1.001303118647089e-6
262 263 -1.001303118647618e-6
263 263 1.961924175110235e-6
264 263 9.910794591035947e-7
263 264 9.910794591035037e-7
264 264 2.0090582232800737e-6
265 264 1.003252515685279e-6
264 265 1.003252515685793e-6
265 265 1.9923711006902873e-6
266 265 -9.857267196493632e-7
265 266 -9.857267196493558e-7
266 266 1.9982242103545643e-6
267 266 9.956916128419166e-7
266 267 9.956916128407566e-7
267 267 2.001670557586282e-6
268 267 -9.93383581117745e-7
267 268 -9.93383581118541e-7
268 268 2.0056848511032215e-6
269 268 1.0007270489391565e-6
268 269 1.0007270489386572e-6
269 269 2.0043327079801575e-6
270 269 9.972222589180965e-7
269 270 9.972222589187887e-7
270 270 2.009469073444247e-6
271 270 9.953773788364367e-7
270 271 9.95377378836631e-7
271 271 2.0056848924140263e-6
272 271 9.97957773174104e-7
271 272 9.979577731734072e-7
272 272 1.984010763285917e-6
273 272 -9.842302988084365e-7
272 273 -9.842302988087587e-7
273 273 1.9740550257535613e-6
274 273 1.0043536096990997e-6
273 274 1.004353609699474e-6
274 274 2.0116144722406653e-6
275 274 -9.953942838421504e-7
274 275 -9.953942838422884e-7
275 275 2.027680135297977e-6
276 275 -1.009101787762394e-6
275 276 -1.0091017877618803e-6
276 276 1.9965531124619864e-6
277 276 -1.0017408037108948e-6
276 277 -1.0017408037101515e-6
277 277 2.0136123995341774e-6
278 277 9.896706927124136e-7
277 278 9.896706927108728e-7
278 278 1.977533798205624e-6
279 278 1.0034255501990787e-6
278 279 1.0034255501994891e-6
279 279 2.0177036799513574e-6
280 279 -9.893449545364452e-7
279 280 -9.893449545368683e-7
280 280 1.998418455456733e-6
281 280 -1.0001905320382727e-6
280 281 -1.0001905320366034e-6
281 281 1.993216743371728e-6
282 281 -9.938524165315717e-7
281 282 -9.938524165316698e-7
282 282 1.9981153250001016e-6
283 282 -9.967025735270072e-7
282 283 -9.96702573527194e-7
283 283 1.9905175068424323e-6
284 283 1.0064094145789117e-6
283 284 1.006409414579183e-6
284 284 2.0097925200306674e-6
285 284 -9.77390539062891e-7
284 285 -9.773905390613178e-7
285 285 1.9786989067497345e-6
286 285 -9.944134876754241e-7
285 286 -9.944134876764376e-7
286 286 2.0477774547530003e-6
287 286 1.0103897892827002e-6
286 287 1.0103897892819034e-6
287 287 1.997533905144498e-6
288 287 -9.941111347923647e-7
287 288 -9.941111347931412e-7
288 288 1.9793340321271456e-6
289 288 1.0021431697620577e-6
288 289 1.0021431697606177e-6
289 289 2.031776647706552e-6
290 289 9.899668573494394e-7
289 290 9.89966857348032e-7
290 290 1.9885594042075515e-6
291 290 9.88408692035508e-7
290 291 9.884086920372272e-7
291 291 2.0198201235371777e-6
292 291 1.0099596328369647e-6
291 292 1.0099596328369748e-6
292 292 1.971651652773406e-6
293 292 9.943665215181114e-7
292 293 9.94366521518099e-7
293 293 1.997263854824054e-6
294 293 1.0013545928488957e-6
293 294 1.0013545928505827e-6
294 294 2.017106331121552e-6
295 294 -9.901002028198793e-7
294 295 -9.901002028191058e-7
295 295 1.9729705551831493e-6
296 295 -9.916425750870508e-7
295 296 -9.916425750860926e-7
296 296 1.9984482961834246e-6
297 296 9.983180233409874e-7
296 297 9.983180233405569e-7
297 297 1.978956713291573e-6
298 297 -1.0014555549408319e-6
297 298 -1.0014555549394595e-6
298 298 2.0224167890378206e-6
299 298 9.971753042060263e-7
298 299 9.971753042059935e-7
299 299 2.0111762675321102e-6
300 299 -9.954908165932546e-7
299 300 -9.954908165926761e-7
300 300 1.998350048864037e-6
301 300 -1.0010297528977765e-6
300 301 -1.0010297528976239e-6
301 301 2.019567237045085e-6
302 301 -1.0039483779733773e-6
301 302 -1.0039483779729352e-6
302 302 1.962197749352968e-6
303 302 -9.900180808066555e-7
302 303 -9.90018080807142e-7
303 303 1.9726385292384625e-6
304 303 1.0078627633250468e-6
303 304 1.0078627633260133e-6
304 304 2.0359216762978576e-6
305 304 -9.866612627598852e-7
304 305 -9.866612627594596e-7
305 305 2.0373582837564374e-6
306 305 9.870371615193693e-7
305 306 9.8703716151845e-7
306 306 1.9925377031312927e-6
307 306 1.0131614364869958e-6
306 307 1.0131614364861831e-6
307 307 1.9832443948985167e-6
308 307 -9.943008158913123e-7
307 308 -9.943008158912079e-7
308 308 2.0019236359090736e-6
309 308 9.89237360351991e-7
308 309 9.892373603522655e-7
309 309 1.99267533426193e-6
310 309 9.872302362504118e-7
309 310 9.872302362493975e-7
310 310 1.973570509911323e-6
311 310 1.0085365255241065e-6
310 311 1.0085365255232785e-6
311 311 2.011820646137146e-6
312 311 9.921119702810532e-7
311 312 9.921119702809011e-7
312 312 1.9812401965144064e-6
313 312 -9.901674317085712e-7
312 313 -9.90167431706165e-7
313 313 2.0139320372305306e-6
314 313 9.911668007574535e-7
313 314 9.911668007582734e-7
314 314 2.001668345987055e-6
315 314 1.01759132040884e-6
314 315 1.0175913204105883e-6
315 315 2.0161008766921672e-6
316 315 9.848854366529127e-7
315 316 9.848854366536007e-7
316 316 1.9706077743523228e-6
317 316 -9.8961869313235e-7
316 317 -9.8961869313227e-7
317 317 1.9974531461620908e-6
318 317 -9.92138693089682e-7
317 318 -9.921386930901203e-7
318 318 1.976186992948005e-6
319 318 1.001011792385767e-6
318 319 1.001011792385626e-6
319 319 2.0396096539797864e-6
320 319 -9.958752283453813e-7
319 320 -9.958752283453518e-7
320 320 1.9984268496315114e-6
321 320 9.957331184291504e-7
320 321 9.957331184298725e-7
321 321 1.971912449204351e-6
322 321 -9.859208810968682e-7
321 322 -9.859208810972891e-7
322 322 1.99085238852087e-6
323 322 9.980630446908564e-7
322 323 9.980630446916134e-7
323 323 2.0247511923964195e-6
324 323 -1.005361828231175e-6
323 324 -1.005361828231645e-6
324 324 2.0459351926312894e-6
325 324 9.877493114805367e-7
324 325 9.877493114804864e-7
325 325 1.97173656386638e-6
326 325 1.007872024214973e-6
325 326 1.0078720242163297e-6
326 326 2.012119622377039e-6
327 326 -9.815954667274005e-7
326 327 -9.81595466727078e-7
327 327 2.020113297231852e-6
328 327 9.99940529189618e-7
327 328 9.999405291895923e-7
328 328 1.984646206725589e-6
329 328 1.0096241404481814e-6
328 329 1.0096241404489206e-6
329 329 1.9995182583623273e-6
330 329 1.000271157260365e-6
329 330 1.00027115726058e-6
330 330 1.977187000316948e-6
331 330 -9.728684007934954e-7
330 331 -9.728684007938308e-7
331 331 2.0142932742017792e-6
332 331 -1.0067232357652398e-6
331 332 -1.0067232357654625e-6
332 332 1.985697544562542e-6
333 332 -9.889929086310951e-7
332 333 -9.889929086317984e-7
333 333 2.0194943741255307e-6
334 333 1.0041445279752558e-6
333 334 1.004144527975506e-6
334 334 2.007096696248241e-6
335 334 -9.923783051851345e-7
334 335 -9.923783051839444e-7
335 335 1.997972403453941e-6
336 335 -9.969036624424139e-7
335 336 -9.969036624428721e-7
336 336 1.9966619245785e-6
337 336 -9.850518471609395e-7
336 337 -9.850518471615118e-7
337 337 2.0003806618586796e-6
338 337 1.0097042901635853e-6
337 338 1.009704290163641e-6
338 338 1.9953114932899286e-6
339 338 -9.790537684905827e-7
338 339 -9.790537684919359e-7
339 339 2.011801368285471e-6
340 339 1.0003797652295046e-6
339 340 1.0003797652292126e-6
340 340 2.0067196166604547e-6
341 340 9.945345926983745e-7
340 341 9.945345926982964e-7
341 341 1.9967103201949383e-6
342 341 -9.929474723438309e-7
341 342 -9.929474723434872e-7
342 342 2.0054077117181772e-6
343 342 9.978313900347721e-7
342 343 9.978313900346527e-7
343 343 2.020804148538841e-6
344 343 1.0007919833670986e-6
343 344 1.0007919833682567e-6
344 344 1.9817231109381345e-6
345 344 9.950319974527219e-7
344 345 9.950319974523814e-7
345 345 2.001410966364946e-6
346 345 -9.976150490925342e-7
345 346 -9.97615049091451e-7
346 346 2.0106640073292693e-6
347 346 9.941079312509363e-7
346 347 9.941079312520592e-7
347 347 1.9777988091630074e-6
348 347 9.96935114706791e-7
347 348 9.969351147069956e-7
348 348 2.0034090661044563e-6
349 348 9.931449498888975e-7
348 349 9.931449498897092e-7
349 349 1.995705476549175e-6
350 349 -1.0083391633753847e-6
349 350 -1.008339163375121e-6
350 350 1.991460317565383e-6
351 350 1.0058701850430159e-6
350 351 1.0058701850447089e-6
351 351 2.0089826274831988e-6
352 351 -9.831930848730395e-7
351 352 -9.831930848719879e-7
352 352 1.9969676268856714e-6
353 352 1.0027416833989498e-6
352 353 1.002741683398971e-6
353 353 2.0336532299722695e-6
354 353 9.95072768782791e-7
353 354 9.95072768783907e-7
354 354 1.9947367420130276e-6
355 354 9.885202717415925e-7
354 355 9.88520271740693e-7
355 355 1.9771370155725157e-6
356 355 -1.0003428740393752e-6
355 356 -1.0003428740383355e-6
356 356 1.996185433626501e-6
357 356 -1.0017022928771182e-6
356 357 -1.0017022928773848e-6
357 357 2.0097089344624165e-6
358 357 9.830216187640292e-7
357 358 9.830216187642874e-7
358 358 1.9735920094354784e-6
359 358 9.901399620079155e-7
358 359 9.901399620080324e-7
359 359 2.0114445609871307e-6
360 359 1.003589036276515e-6
359 360 1.0035890362765648e-6
360 360 1.9921121282607535e-6
361 360 -9.803506804707557e-7
360 361 -9.803506804715079e-7
361 361 1.9680256509099316e-6
362 361 1.0144319108033175e-6
361 362 1.0144319108029996e-6
362 362 2.0029078317242573e-6
363 362 -9.85898957566994e-7
362 363 -9.858989575668197e-7
363 363 2.015208815856548e-6
364 363 -9.91250735685233e-7
363 364 -9.912507356858151e-7
364 364 2.0092732745110343e-6
365 364 1.0022793020927321e-6
364 365 1.0022793020920454e-6
365 365 2.0203529448807776e-6
366 365 9.871495249940238e-7
365 366 9.871495249941578e-7
366 366 1.98634223746904e-6
367 366 -1.0042186983971243e-6
366 367 -1.004218698397155e-6
367 367 2.009248771130865e-6
368 367 9.960705428489912e-7
367 368 9.96070542848044e-7
368 368 2.0165191128358533e-6
369 368 -9.792051581175037e-7
368 369 -9.792051581172223e-7
369 369 1.9841863119745106e-6
370 369 1.0035262746861937e-6
369 370 1.0035262746870397e-6
370 370 2.006984252294525e-6
371 370 9.968373133662018e-7
370 371 9.968373133650128e-7
371 371 1.9993362768549294e-6
372 371 -9.922748350782858e-7
371 372 -9.922748350791174e-7
372 372 2.0007629217006322e-6
373 372 1.0098282326412685e-6
372 373 1.0098282326421105e-6
373 373 2.0436721438885616e-6
374 373 -9.895426451489353e-7
373 374 -9.895426451481912e-7
374 374 1.982030117317849e-6
375 374 -9.914642981174524e-7
374 375 -9.91464298117614e-7
375 375 1.997694901774444e-6
376 375 1.001302704631567e-6
375 376 1.0013027046306644e-6
376 376 1.9845992092883055e-6
377 376 9.76277373041908e-7
376 377 9.762773730418526e-7
377 377 2.0044718436536656e-6
378 377 -1.0179639510111665e-6
377 378 -1.0179639510115229e-6
378 378 1.9856366702394375e-6
379 378 9.850893656020587e-7
378 379 9.850893656012858e-7
379 379 2.0041988424010723e-6
380 379 9.886852890060866e-7
379 380 9.886852890055966e-7
380 380 2.0026989271707605e-6
381 380 -9.962064739193492e-7
380 381 -9.96206473918993e-7
381 381 1.9728684888701873e-6
382 381 9.90539913689847e-7
381 382 9.905399136907456e-7
382 382 2.006690537873247e-6
383 382 9.9868063558464e-7
382 383 9.986806355838342e-7
383 383 2.00808868980316e-6
384 383 -1.0070192923777697e-6
383 384 -1.0070192923791073e-6
384 384 2.0132090329565554e-6
385 384 9.884344186901712e-7
384 385 9.884344186892585e-7
385 385 2.0233013730773197e-6
386 385 1.000015169219918e-6
385 386 1.000015169220394e-6
386 386 2.0135408660691917e-6
387 386 9.84215719923668e-7
386 387 9.842157199230548e-7
387 387 1.9761250972654914e-6
388 387 -1.0054791380305816e-6
387 388 -1.005479138029951e-6
388 388 1.9858892453934787e-6
389 388 9.964386385271453e-7
388 389 9.964386385285978e-7
389 389 2.003437143592039e-6
390 389 -9.858718814480776e-7
389 390 -9.858718814485788e-7
390 390 2.0028424761810398e-6
391 390 9.836951711474743e-7
390 391 9.836951711491205e-7
391 391 1.9874391713227307e-6
392 391 -1.012807942614301e-6
391 392 -1.012807942615066e-6
392 392 1.986344816995786e-6
393 392 9.995097067671198e-7
392 393 9.995097067665184e-7
393 393 2.0153344217401817e-6
394 393 9.891987594299449e-7
393 394 9.89198759430903e-7
394 394 2.0034517434203608e-6
395 394 9.840202725762446e-7
394 395 9.840202725765216e-7
395 395 2.027759351534894e-6
396 395 -1.0135564153448778e-6
395 396 -1.0135564153449905e-6
396 396 1.9857281485989594e-6
397 396 9.971576972273097e-7
396 397 9.971576972292864e-7
397 397 1.9953491436892754e-6
398 397 -9.745499044038159e-7
397 398 -9.745499044022288e-7
398 398 1.998760560228412e-6
399 398 -1.0066889717701888e-6
398 399 -1.0066889717699116e-6
399 399 1.9692782479644668e-6
400 399 9.794908660514494e-7
399 400 9.7949086605132e-7
400 400 2.019838265638452e-6
401 400 -9.974165420665893e-7
400 401 -9.974165420661813e-7
401 401 1.9837564277927906e-6
402 401 1.0174942365307763e-6
401 402 1.0174942365303172e-6
402 402 2.026110651853302e-6
403 402 -9.78126534116404e-7
402 403 -9.781265341172098e-7
403 403 1.9917076033585445e-6
404 403 -1.005219951389937e-6
403 404 -1.0052199513917246e-6
404 404 2.0185436494466236e-6
405 404 9.899247085145817e-7
404 405 9.899247085127083e-7
405 405 1.9900598257863435e-6
406 405 9.904423201423173e-7
405 406 9.904423201434807e-7
406 406 1.992891465784591e-6
407 406 -9.981493652875989e-7
406 407 -9.981493652874335e-7
407 407 1.998267093764572e-6
408 407 9.811099673717791e-7
407 408 9.811099673714687e-7
408 408 1.9904122202360845e-6
409 408 -9.894656625082341e-7
408 409 -9.894656625097327e-7
409 409 1.9899040396748605e-6
410 409 1.002596186932929e-6
409 410 1.002596186932708e-6
410 410 2.0020289837583696e-6
411 410 9.932337809950196e-7
410 411 9.932337809956925e-7
411 411 2.0227738690085757e-6
412 411 9.972196267472461e-7
411 412 9.972196267469886e-7
412 412 2.007750498967041e-6
413 412 -9.773657013674562e-7
412 413 -9.773657013677499e-7
413 413 1.999223585416322e-6
414 413 -9.990436341572927e-7
413 414 -9.990436341573635e-7
414 414 1.973011785834728e-6
415 414 9.91933192542873e-7
414 415 9.919331925430043e-7
415 415 2.006225364712605e-6
416 415 -9.912334284208158e-7
415 416 -9.912334284198211e-7
416 416 1.994502804783556e-6
417 416 -9.850362215299746e-7
416 417 -9.850362215280385e-7
417 417 2.012285112785128e-6
418 417 1.0081342469276424e-6
417 418 1.008134246928781e-6
418 418 1.991651701935035e-6
419 418 -9.93542527444561e-7
418 419 -9.935425274450376e-7
419 419 1.9875786369148314e-6
420 419 9.816576987546402e-7
419 420 9.816576987536445e-7
420 420 1.980675769326638e-6
421 420 1.0004203359788691e-6
420 421 1.000420335978705e-6
421 421 2.0066611781305284e-6
422 421 9.89687387061378e-7
421 422 9.896873870634702e-7
422 422 1.9911451765914584e-6
423 422 -1.0012252026628494e-6
422 423 -1.001225202663369e-6
423 423 2.0178581227131023e-6
424 423 9.979875217770513e-7
423 424 9.979875217778714e-7
424 424 1.992510122062058e-6
425 424 1.0003012312555345e-6
424 425 1.0003012312559372e-6
425 425 2.0029854232491974e-6
426 425 -1.0043709607089496e-6
425 426 -1.0043709607097183e-6
426 426 1.968545003305784e-6
427 426 9.801888936008085e-7
426 427 9.801888936012644e-7
427 427 2.023436545232329e-6
428 427 9.908040142613898e-7
427 428 9.908040142607596e-7
428 428 2.0074039438450484e-6
429 428 9.919975659135066e-7
428 429 9.919975659160553e-7
429 429 1.977379141851925e-6
430 429 -9.897087282379465e-7
429 430 -9.897087282365913e-7
430 430 2.0065921242762274e-6
431 430 9.95592975683313e-7
430 431 9.955929756842521e-7
431 431 2.00076153933454e-6
432 431 -1.0015614247570847e-6
431 432 -1.0015614247567806e-6
432 432 2.0294370056692055e-6
433 432 -9.781463439958055e-7
432 433 -9.781463439971031e-7
433 433 2.017524327642441e-6
434 433 -1.011258344988437e-6
433 434 -1.0112583449870139e-6
434 434 1.9976021525534665e-6
435 434 9.768165889103785e-7
434 435 9.76816588911597e-7
435 435 2.000925372556753e-6
436 435 -1.0024322946790311e-6
435 436 -1.0024322946783518e-6
436 436 1.997541763944541e-6
437 436 -9.909575402510987e-7
436 437 -9.909575402498091e-7
437 437 1.9885596133956057e-6
438 437 9.875950394930015e-7
437 438 9.87595039493402e-7
438 438 1.9665114141128725e-6
439 438 9.93124346456209e-7
438 439 9.931243464574229e-7
439 439 2.013482149885934e-6
440 439 -1.0020947232134526e-6
439 440 -1.0020947232142895e-6
440 440 2.0023687636125704e-6
441 440 9.956655653987803e-7
440 441 9.956655653984123e-7
441 441 1.9973697074026206e-6
442 441 9.993301500024844e-7
441 442 9.993301500013993e-7
442 442 1.990680581990994e-6
443 442 -9.799996313350375e-7
442 443 -9.799996313351478e-7
443 443 2.0108641988077213e-6
444 443 9.9812985460075e-7
443 444 9.981298546006176e-7
444 444 2.0044455530919245e-6
445 444 9.895018839073872e-7
444 445 9.895018839069442e-7
445 445 1.9836397506820474e-6
446 445 9.816109633932203e-7
445 446 9.816109633925575e-7
446 446 2.028724078487465e-6
447 446 1.0039812481291429e-6
446 447 1.0039812481291446e-6
447 447 1.9927319415156704e-6
448 447 9.918412577062616e-7
447 448 9.918412577060924e-7
448 448 2.012530585184586e-6
449 448 9.95385169912038e-7
448 449 9.953851699118014e-7
449 449 1.985627166085398e-6
450 449 -9.808121422274383e-7
449 450 -9.808121422282972e-7
450 450 2.0239551744878624e-6
451 450 1.0049676550543094e-6
450 451 1.0049676550543308e-6
451 451 1.990816670579685e-6
452 451 1.001645921488962e-6
451 452 1.0016459214885918e-6
452 452 2.0081965153445064e-6
453 452 9.966932838745982e-7
452 453 9.966932838740895e-7
453 453 1.9964469962278145e-6
454 453 9.901113779761374e-7
453 454 9.90111377974935e-7
454 454 2.037739337907724e-6
455 454 -9.952431287100397e-7
454 455 -9.952431287100982e-7
455 455 1.981862412286461e-6
456 455 -9.868362098187048e-7
455 456 -9.86836209818729e-7
456 456 1.9689961343956168e-6
457 456 9.852364306138385e-7
456 457 9.852364306134491e-7
457 457 1.9991740443658523e-6
458 457 -9.968136800692233e-7
457 458 -9.968136800684888e-7
458 458 2.0270971628061506e-6
459 458 9.881508465585241e-7
458 459 9.881508465584077e-7
459 459 1.9939766613870647e-6
460 459 -9.913427189218428e-7
459 460 -9.913427189224543e-7
460 460 1.976863076619343e-6
461 460 9.790485381616753e-7
460 461 9.790485381605942e-7
461 461 2.004002979665715e-6
462 461 9.964648753102003e-7
461 462 9.964648753112264e-7
462 462 1.9961377820487606e-6
463 462 9.95622944182921e-7
462 463 9.956229441832143e-7
463 463 1.978686697304268e-6
464 463 -9.92969152719346e-7
463 464 -9.929691527197827e-7
464 464 2.022645753208793e-6
465 464 9.91091446432081e-7
464 465 9.910914464310748e-7
465 465 1.977958268909838e-6
466 465 -9.984452422886845e-7
465 466 -9.984452422894187e-7
466 466 1.9974037504124487e-6
467 466 -9.935238886749613e-7
466 467 -9.935238886737892e-7
467 467 1.9844526962456685e-6
468 467 -9.822638328663188e-7
467 468 -9.822638328672442e-7
468 468 1.9944778636561003e-6
469 468 -1.0068604516601487e-6
468 469 -1.0068604516610394e-6
469 469 1.9972106961772132e-6
470 469 -9.91599304583412e-7
469 470 -9.915993045827989e-7
470 470 2.0125421371190404e-6
471 470 9.905826871717074e-7
470 471 9.905826871723186e-7
471 471 1.956146526941638e-6
472 471 9.793363579296353e-7
471 472 9.793363579290005e-7
472 472 2.014146097521359e-6
473 472 9.997518598403553e-7
472 473 9.997518598400755e-7
473 473 2.007359980979481e-6
474 473 -9.91505037540929e-7
473 474 -9.91505037540334e-7
474 474 2.0008233890005218e-6
475 474 -9.976889259716384e-7
474 475 -9.976889259720537e-7
475 475 1.9878056567384086e-6
476 475 9.852586576688271e-7
475 476 9.852586576676868e-7
476 476 1.98913450624612e-6
477 476 -1.0015986073746164e-6
476 477 -1.0015986073750401e-6
477 477 2.0214061652449137e-6
478 477 9.893040091799715e-7
477 478 9.893040091810826e-7
478 478 2.004669338870251e-6
479 478 9.858144092486863e-7
478 479 9.858144092478455e-7
479 479 1.9923275737762264e-6
480 479 -9.90093965358119e-7
479 480 -9.900939653577677e-7
480 480 2.028877812787316e-6
481 480 -1.0072676022681927e-6
480 481 -1.0072676022699914e-6
481 481 1.986438359573086e-6
482 481 9.914896782063192e-7
481 482 9.914896782056945e-7
482 482 1.9994583030967758e-6
483 482 9.797627739028383e-7
482 483 9.797627739044066e-7
483 483 2.0161519236875947e-6
484 483 -1.0028576585582344e-6
483 484 -1.0028576585589317e-6
484 484 1.987891344440705e-6
485 484 1.0012134962836793e-6
484 485 1.0012134962818312e-6
485 485 1.994728935967564e-6
486 485 9.846665812564414e-7
485 486 9.84666581257369e-7
486 486 1.9850034295208936e-6
487 486 9.938485880457315e-7
486 487 9.93848588045144e-7
487 487 2.02564002840049e-6
488 487 9.868935348307878e-7
487 488 9.868935348300265e-7
488 488 1.988350790236525e-6
489 488 9.927798097699887e-7
488 489 9.927798097689051e-7
489 489 2.0349107126099866e-6
490 489 -9.91430473057912e-7
489 490 -9.91430473058285e-7
490 490 1.9833027519281076e-6
491 490 -9.943408797161762e-7
490 491 -9.943408797149855e-7
491 491 1.9963891106380743e-6
492 491 9.957026016980427e-7
491 492 9.957026016976143e-7
492 492 1.9855910287691853e-6
493 492 9.850951485308966e-7
492 493 9.850951485299107e-7
493 493 2.0191736315597603e-6
494 493 1.001518775343443e-6
493 494 1.001518775343886e-6
494 494 1.980730364550586e-6
495 494 1.001807546318653e-6
494 495 1.001807546320048e-6
495 495 2.0017803241092336e-6
496 495 9.713697899275942e-7
495 496 9.713697899272581e-7
496 496 2.005452339588295e-6
497 496 9.96758898882504e-7
496 497 9.96758898883053e-7
497 497 1.995380543861729e-6
498 497 9.76077703977438e-7
497 498 9.7607770397836e-7
498 498 1.999316897864945e-6
499 498 -1.009137644980146e-6
498 499 -1.0091376449810947e-6
499 499 2.017676734547966e-6
500 499 -9.872469353786777e-7
499 500 -9.872469353783484e-7
500 500 1.9944221245098005e-6
501 500 -9.826024718377339e-7
500 501 -9.826024718376818e-7
501 501 2.0071781597197447e-6
502 501 -9.888799202173865e-7
501 502 -9.888799202200572e-7
502 502 2.022260876392173e-6
503 502 -1.0130364754695743e-6
502 503 -1.0130364754688725e-6
503 503 1.980004399587433e-6
504 503 9.89623409510654e-7
503 504 9.896234095106892e-7
504 504 2.0018192783932273e-6
505 504 -9.939565112985122e-7
504 505 -9.93956511299204e-7
505 505 1.9867137608875647e-6
506 505 -9.931319644605566e-7
505 506 -9.93131964459888e-7
506 506 2.012427047211183e-6
507 506 -9.811205053270794e-7
506 507 -9.811205053268562e-7
507 507 1.9993157213249572e-6
508 507 -9.949171169585055e-7
507 508 -9.949171169590228e-7
508 508 1.994734085691725e-6
509 508 -1.004491081067248e-6
508 509 -1.0044910810660229e-6
509 509 2.0122102616292703e-6
510 509 -9.998186242314345e-7
509 510 -9.998186242323633e-7
510 510 2.020474450588543e-6
511 510 9.93266805534826e-7
510 511 9.932668055328645e-7
511 511 1.9941483682073844e-6
512 511 9.808462699113715e-7
511 512 9.80846269911489e-7
512 512 1.9633819031660564e-6
513 512 -9.897822811853465e-7
512 513 -9.897822811860908e-7
513 513 2.033894920798672e-6
514 513 9.850604378047053e-7
513 514 9.850604378040994e-7
514 514 1.937196996164666e-6
515 514 9.96232293262585e-7
514 515 9.96232293263048e-7
515 515 2.0326334240663603e-6
516 515 -1.006365688027208e-6
515 516 -1.0063656880256114e-6
516 516 1.9866956537148185e-6
517 516 9.722800434079621e-7
516 517 9.722800434078495e-7
517 517 2.0013106623395956e-6
518 517 -9.84108342198364e-7
517 518 -9.841083421989234e-7
518 518 1.986186864543388e-6
519 518 9.849061486782916e-7
518 519 9.84906148677851e-7
519 519 2.023839075325088e-6
520 519 -9.79904539243714e-7
519 520 -9.799045392440992e-7
520 520 1.9793939671942262e-6
521 520 -9.98696596527478e-7
520 521 -9.986965965271482e-7
521 521 2.0291810636246936e-6
522 521 9.87747643670891e-7
521 522 9.877476436731638e-7
522 522 2.016009686669932e-6
523 522 1.0001334682237067e-6
522 523 1.0001334682217782e-6
523 523 2.0043732772582e-6
524 523 9.92369284126376e-7
523 524 9.923692841271545e-7
524 524 2.0116603394024376e-6
525 524 9.91622970489496e-7
524 525 9.9162297049036e-7
525 525 1.980176390236763e-6
526 525 9.948528370301956e-7
525 526 9.948528370307927e-7
526 526 2.0581452631943947e-6
527 526 9.7953868580466e-7
526 527 9.795386858034742e-7
527 527 1.9727909746845297e-6
528 527 -1.000464241420568e-6
527 528 -1.0004642414200002e-6
528 528 2.0179205326515527e-6
529 528 -9.88749046143038e-7
528 529 -9.887490461424917e-7
529 529 1.966769295524714e-6
530 529 -9.911290410431122e-7
529 530 -9.911290410416725e-7
530 530 2.0226045863180696e-6
531 530 -9.897120879993607e-7
530 531 -9.89712087999698e-7
531 531 1.9828206247900058e-6
532 531 -1.0082539425808407e-6
531 532 -1.0082539425809913e-6
532 532 2.0330279991651336e-6
533 532 9.844714242195852e-7
532 533 9.844714242188703e-7
533 533 1.9706123297612844e-6
534 533 -9.896386508879083e-7
533 534 -9.896386508877795e-7
534 534 2.0148413293977676e-6
535 534 9.909011321005354e-7
534 535 9.90901132100833e-7
535 535 1.961938562352671e-6
536 535 -9.785456565355326e-7
535 536 -9.785456565367e-7
536 536 1.970495868292064e-6
537 536 9.933807606808453e-7
536 537 9.933807606801916e-7
537 537 1.980198329864826e-6
538 537 9.966323864467848e-7
537 538 9.96632386447552e-7
538 538 2.0273097379710743e-6
539 538 9.744895575596324e-7
538 539 9.744895575601821e-7
539 539 1.991342844079764e-6
540 539 1.0079751975487588e-6
539 540 1.0079751975490095e-6
540 540 2.0115470983258554e-6
541 540 -9.891625570332086e-7
540 541 -9.891625570329155e-7
541 541 2.0244896328296852e-6
542 541 -9.932757605615069e-7
541 542 -9.932757605622817e-7
542 542 2.011909643938524e-6
543 542 9.856045677870606e-7
542 543 9.856045677863766e-7
543 543 1.997797225236633e-6
544 543 9.889977578069653e-7
543 544 9.889977578066985e-7
544 544 1.9740166990456388e-6
545 544 9.874351522430357e-7
544 545 9.874351522445434e-7
545 545 2.0188023137617082e-6
546 545 1.0042470277913379e-6
545 546 1.0042470277915335e-6
546 546 2.0078942497354974e-6
547 546 -9.724237856364277e-7
546 547 -9.724237856348501e-7
547 547 1.9785730022624164e-6
548 547 9.926498183576191e-7
547 548 9.926498183577644e-7
548 548 1.9990403605860034e-6
549 548 9.99302630143816e-7
548 549 9.993026301444273e-7
549 549 1.991126885688227e-6
550 549 -9.95701323770188e-7
549 550 -9.957013237689696e-7
550 550 2.02344782608135e-6
551 550 -9.97794156959157e-7
550 551 -9.977941569608833e-7
551 551 1.9678614280662055e-6
552 551 -9.747872076158442e-7
551 552 -9.747872076141781e-7
552 552 2.0013412690669413e-6
553 552 9.835883826359254e-7
552 553 9.835883826340863e-7
553 553 2.0178035189539516e-6
554 553 -1.0200738077764096e-6
553 554 -1.0200738077764249e-6
554 554 1.96976575626176e-6
555 554 -9.918693989509812e-7
554 555 -9.918693989515286e-7
555 555 2.0246522678543408e-6
556 555 -9.90097233545717e-7
555 556 -9.90097233546354e-7
556 556 1.9488963738589367e-6
557 556 9.864549900512055e-7
556 557 9.864549900502585e-7
557 557 2.004531496007156e-6
558 557 -9.882567329213058e-7
557 558 -9.882567329217276e-7
558 558 2.0091054046932644e-6
559 558 9.873604109509254e-7
558 559 9.873604109496915e-7
559 559 1.999205571767786e-6
560 559 -9.79307053276065e-7
559 560 -9.793070532769278e-7
560 560 2.0049711545338235e-6
561 560 1.0003827605405996e-6
560 561 1.0003827605411163e-6
561 561 1.9827334638665143e-6
562 561 -1.0051482760298784e-6
561 562 -1.0051482760297947e-6
562 562 2.018281404380467e-6
563 562 -9.935587469919077e-7
562 563 -9.93558746992193e-7
563 563 2.0127510739058775e-6
564 563 9.81571902373925e-7
563 564 9.815719023734132e-7
564 564 2.006647322001961e-6
565 564 9.806743528034134e-7
564 565 9.806743528042225e-7
565 565 1.9776876597125067e-6
566 565 9.914661362614945e-7
565 566 9.914661362602584e-7
566 566 1.9860023959976727e-6
567 566 -1.0009705284597416e-6
566 567 -1.0009705284588933e-6
567 567 2.0050763462335537e-6
568 567 -9.912274799985464e-7
567 568 -9.912274799973904e-7
568 568 1.999916731283265e-6
569 568 -9.848075581034843e-7
568 569 -9.84807558104443e-7
569 569 1.9865961100379566e-6
570 569 -9.880580413222648e-7
569 570 -9.880580413244607e-7
570 570 1.9940113033522373e-6
571 570 -9.875107493594952e-7
570 571 -9.875107493597006e-7
571 571 2.0125035856282375e-6
572 571 9.796309691004574e-7
571 572 9.796309690981827e-7
572 572 1.9949318034042406e-6
573 572 1.0027977197538691e-6
572 573 1.0027977197534123e-6
573 573 2.0063835515694273e-6
574 573 9.853462426051512e-7
573 574 9.85346242605884e-7
574 574 1.998252936160422e-6
575 574 1.0052319594308297e-6
574 575 1.00523195942924e-6
575 575 2.034543279877079e-6
576 575 9.824809740242147e-7
575 576 9.824809740240982e-7
576 576 1.9910206200000397e-6
577 576 9.886915152059088e-7
576 577 9.886915152068022e-7
577 577 1.9653451061191724e-6
578 577 9.911052300491633e-7
577 578 9.911052300500879e-7
578 578 2.0059124131692492e-6
579 578 -9.928367466473946e-7
578 579 -9.928367466464906e-7
579 579 1.9485706128436207e-6
580 579 -9.82326439121575e-7
579 580 -9.823264391223564e-7
580 580 2.0317815241909637e-6
581 580 1.0005237591249817e-6
580 581 1.0005237591248472e-6
581 581 1.9744698963164765e-6
582 581 -9.86580869851444e-7
581 582 -9.86580869852661e-7
582 582 2.0061006436008975e-6
583 582 9.74206110779145e-7
582 583 9.742061107799692e-7
583 583 2.0038505185249405e-6
584 583 9.90105412721939e-7
583 584 9.901054127211831e-7
584 584 2.033111138357291e-6
585 584 -9.83875154398571e-7
584 585 -9.838751543992656e-7
585 585 1.979167711007788e-6
586 585 9.898381384060906e-7
585 586 9.898381384071682e-7
586 586 1.985713296001517e-6
587 586 9.760027883291365e-7
586 587 9.760027883279254e-7
587 587 1.997739368992424e-6
588 587 1.0021797831623645e-6
587 588 1.00217978316168e-6
588 588 1.988847796484793e-6
589 588 9.72174100901287e-7
588 589 9.721741009010203e-7
589 589 2.009549230460786e-6
590 589 1.0036200332638933e-6
589 590 1.0036200332643888e-6
590 590 1.9956791560160475e-6
591 590 9.800390198818548e-7
590 591 9.800390198807793e-7
591 591 2.014572044257602e-6
592 591 9.984227770663836e-7
591 592 9.98422777066084e-7
592 592 2.026660671582883e-6
593 592 9.694985988544845e-7
592 593 9.694985988553428e-7
593 593 1.993120774167164e-6
594 593 9.846635552891602e-7
593 594 9.846635552894325e-7
594 594 2.0179137660715704e-6
595 594 1.000320115421703e-6
594 595 1.0003201154205565e-6
595 595 1.9702555399715156e-6
596 595 9.874046815749276e-7
595 596 9.874046815755491e-7
596 596 2.0132856946560417e-6
597 596 -9.982672173141442e-7
596 597 -9.982672173135877e-7
597 597 2.047960838822776e-6
598 597 9.769904267649228e-7
597 598 9.769904267668883e-7
598 598 1.988926815135655e-6
599 598 9.92013604041865e-7
598 599 9.920136040402025e-7
599 599 1.9870814433318448e-6
600 599 9.837980880629014e-7
599 600 9.837980880647439e-7
600 600 1.974991735965932e-6
601 600 9.946933269145704e-7
600 601 9.946933269139258e-7
601 601 2.000895819719512e-6
602 601 -9.908487952923288e-7
601 602 -9.908487952916434e-7
602 602 1.9910601013746112e-6
603 602 9.886144346550082e-7
602 603 9.886144346550354e-7
603 603 2.0180388460468334e-6
604 603 -9.857846618322987e-7
603 604 -9.85784661832831e-7
604 604 1.9803880279107828e-6
605 604 9.898799591998224e-7
604 605 9.898799591995627e-7
605 605 2.0238563262727285e-6
606 605 -9.89791517796472e-7
605 606 -9.897915177970555e-7
606 606 1.9839610986321124e-6
607 606 9.72323769571032e-7
606 607 9.723237695710077e-7
607 607 1.997784138123872e-6
608 607 1.0008689984442927e-6
607 608 1.0008689984452054e-6
608 608 2.0104977371576127e-6
609 608 -9.926487617087332e-7
608 609 -9.926487617105922e-7
609 609 1.988175274317153e-6
610 609 -9.793960039037032e-7
609 610 -9.793960039025703e-7
610 610 2.013767147273876e-6
611 610 9.896263020941756e-7
610 611 9.896263020940172e-7
611 611 2.013710348988509e-6
612 611 -9.859776520275203e-7
611 612 -9.859776520271427e-7
612 612 2.0036932683990784e-6
613 612 9.960387967237297e-7
612 613 9.96038796723737e-7
613 613 1.994676687306565e-6
614 613 -9.744921124404873e-7
613 614 -9.744921124408511e-7
614 614 1.997538588944295e-6
615 614 9.900853572515988e-7
614 615 9.900853572522271e-7
615 615 2.0094425171237407e-6
616 615 9.875354238498683e-7
615 616 9.875354238489546e-7
616 616 1.9973601144223426e-6
617 616 -1.00276457517724e-6
616 617 -1.0027645751771615e-6
617 617 2.011671218323924e-6
618 617 9.92751648492771e-7
617 618 9.927516484944722e-7
618 618 1.989450237825289e-6
619 618 9.84833752247392e-7
618 619 9.848337522464554e-7
619 619 2.0026431676237844e-6
620 619 9.898767985002718e-7
619 620 9.89876798499878e-7
620 620 2.0130964039121105e-6
621 620 -9.907019159653295e-7
620 621 -9.907019159655322e-7
621 621 2.0108446675312974e-6
622 621 9.656851683475394e-7
621 622 9.656851683481836e-7
622 622 1.9773773173984927e-6
623 622 1.0088752350695103e-6
622 623 1.0088752350686879e-6
623 623 1.9959409476993343e-6
624 623 -9.768133545052586e-7
623 624 -9.768133545050992e-7
624 624 2.0064092305129363e-6
625 624 -9.8770660484809e-7
624 625 -9.87706604848196e-7
625 625 1.9853685202178567e-6
626 625 -9.760099982114712e-7
625 626 -9.760099982118483e-7
626 626 1.9878584715816133e-6
627 626 -9.874050477268913e-7
626 627 -9.874050477255878e-7
627 627 2.0205177561828892e-6
628 627 1.0052818430930875e-6
627 628 1.0052818430927739e-6
628 628 1.9872920422100423e-6
629 628 -9.886719689070352e-7
628 629 -9.8867196890766e-7
629 629 2.0054573641007152e-6
630 629 -9.902399636361957e-7
629 630 -9.902399636357976e-7
630 630 2.027694666311285e-6
631 630 -9.939121521262532e-7
630 631 -9.939121521260973e-7
631 631 1.964977156631717e-6
632 631 9.843195606059685e-7
631 632 9.843195606054033e-7
632 632 2.0079447883338446e-6
633 632 9.89177020672231e-7
632 633 9.891770206706407e-7
633 633 2.006107402501883e-6
634 633 -9.71234446563757e-7
633 634 -9.712344465646827e-7
634 634 1.9936542104909384e-6
635 634 -9.814276486332202e-7
634 635 -9.814276486312729e-7
635 635 1.9744733702305756e-6
636 635 9.882814940259494e-7
635 636 9.882814940245577e-7
636 636 2.0243140198522667e-6
637 636 9.736656503799714e-7
636 637 9.73665650380559e-7
637 637 2.0007358526914544e-6
638 637 9.944915028723146e-7
637 638 9.944915028730943e-7
638 638 2.0155833611923886e-6
639 638 -9.90181948068827e-7
638 639 -9.901819480684663e-7
639 639 2.0098445752165095e-6
640 639 -9.947613814032478e-7
639 640 -9.947613814034509e-7
640 640 1.988342010498898e-6
641 640 -9.974458987172571e-7
640 641 -9.974458987173059e-7
641 641 1.9986502209361e-6
642 641 9.675592705387882e-7
641 642 9.675592705386337e-7
642 642 2.00893748766735e-6
643 642 9.89995150503175e-7
642 643 9.899951505025227e-7
643 643 2.026626889771462e-6
644 643 9.891376193068374e-7
643 644 9.891376193076925e-7
644 644 1.991205127581416e-6
645 644 -1.0002103624691725e-6
644 645 -1.0002103624669568e-6
645 645 2.016347660540002e-6
646 645 9.905853922643019e-7
645 646 9.905853922645898e-7
646 646 1.988285633301482e-6
647 646 9.694613875975339e-7
646 647 9.694613875969156e-7
647 647 2.00511369647901e-6
648 647 -9.858975485191975e-7
647 648 -9.858975485204073e-7
648 648 1.991679305391836e-6
649 648 -9.92794549100517e-7
648 649 -9.927945490997823e-7
649 649 2.008889311200319e-6
650 649 9.844552514333474e-7
649 650 9.844552514339998e-7
650 650 1.9913055445063657e-6
651 650 -9.780285629614877e-7
650 651 -9.780285629622634e-7
651 651 2.009680688579065e-6
652 651 9.688003936921955e-7
651 652 9.688003936921972e-7
652 652 1.95818837663971e-6
653 652 9.827968425739532e-7
652 653 9.82796842574607e-7
653 653 1.983461775201962e-6
654 653 9.790003348164707e-7
653 654 9.790003348159583e-7
654 654 2.0025456764706322e-6
655 654 9.863580388312106e-7
654 655 9.863580388322836e-7
655 655 2.000505241008541e-6
656 655 -9.943390390251194e-7
655 656 -9.943390390250423e-7
656 656 1.9743717431810497e-6
657 656 9.901895401196443e-7
656 657 9.901895401193425e-7
657 657 2.027909047772425e-6
658 657 9.961925880179638e-7
657 658 9.961925880188961e-7
658 658 1.9887202898810446e-6
659 658 -9.888597417890825e-7
658 659 -9.888597417887087e-7
659 659 2.0068304409020493e-6
660 659 9.929877649494262e-7
659 660 9.929877649512273e-7
660 660 2.019161538492552e-6
661 660 9.77181216015389e-7
660 661 9.771812160154302e-7
661 661 1.986449588052429e-6
662 661 -9.73268558799102e-7
661 662 -9.732685587988564e-7
662 662 2.012944069509358e-6
663 662 -9.938293045960777e-7
662 663 -9.9382930459496e-7
663 663 1.99670234605518e-6
664 663 9.728385702663285e-7
663 664 9.728385702666961e-7
664 664 1.974534969841707e-6
665 664 -9.841939020168485e-7
664 665 -9.841939020165361e-7
665 665 2.001274690978935e-6
666 665 9.873879006458912e-7
665 666 9.873879006463094e-7
666 666 2.012628219598465e-6
667 666 9.980243964471343e-7
666 667 9.980243964477033e-7
667 667 1.9894219493803935e-6
668 667 9.941041367106055e-7
667 668 9.941041367111317e-7
668 668 2.031617406376901e-6
669 668 9.840046632383128e-7
668 669 9.840046632383658e-7
669 669 1.993967591357084e-6
670 669 9.866606987366374e-7
669 670 9.866606987352754e-7
670 670 1.98713762801114e-6
671 670 9.86438974165771e-7
670 671 9.864389741657452e-7
671 671 2.011708915557799e-6
672 671 -9.731947838743924e-7
671 672 -9.731947838745076e-7
672 672 2.0041338202739007e-6
673 672 -9.90056934280252e-7
672 673 -9.900569342808612e-7
673 673 2.0063193693783616e-6
674 673 -9.812034601618505e-7
673 674 -9.812034601617006e-7
674 674 1.999290636981166e-6
675 674 9.929465894494954e-7
674 675 9.929465894488167e-7
675 675 1.978663801542104e-6
676 675 -9.875359371886417e-7
675 676 -9.875359371870006e-7
676 676 2.004624171935968e-6
677 676 9.768174379863054e-7
676 677 9.768174379872018e-7
677 677 1.9984530507931567e-6
678 677 -9.85098138952154e-7
677 678 -9.850981389512554e-7
678 678 2.0161977036366813e-6
679 678 9.758739343522377e-7
678 679 9.758739343514784e-7
679 679 2.0117179145687417e-6
680 679 1.0025677503220064e-6
679 680 1.0025677503212625e-6
680 680 1.972142925021722e-6
681 680 9.729870785176246e-7
680 681 9.729870785158585e-7
681 681 2.037446836106042e-6
682 681 9.79830607909844e-7
681 682 9.79830607910263e-7
682 682 2.0188411270928105e-6
683 682 9.900110667854045e-7
682 683 9.90011066783657e-7
683 683 1.9797838644404656e-6
684 683 -9.97208546121711e-7
683 684 -9.972085461220276e-7
684 684 2.019570150883218e-6
685 684 -9.828411037557563e-7
684 685 -9.828411037545199e-7
685 685 2.005391811174043e-6
686 685 9.851760984399671e-7
685 686 9.851760984411632e-7
686 686 1.985338602174961e-6
687 686 -9.696754615785977e-7
686 687 -9.696754615792622e-7
687 687 2.0186003877260244e-6
688 687 9.895261604241082e-7
687 688 9.895261604242786e-7
688 688 1.9883057396759423e-6
689 688 -9.867969652607025e-7
688 689 -9.86796965259022e-7
689 689 2.0121065099325544e-6
690 689 9.924256598865428e-7
689 690 9.924256598861424e-7
690 690 1.9632482531635986e-6
691 690 -9.766842258764495e-7
690 691 -9.766842258761056e-7
691 691 2.023762063277833e-6
692 691 -9.795819823435568e-7
691 692 -9.79581982342164e-7
692 692 2.008722468795234e-6
693 692 -9.889283947929017e-7
692 693 -9.889283947945712e-7
693 693 1.9731129131009726e-6
694 693 9.931766890764694e-7
693 694 9.931766890765943e-7
694 694 2.000331653134334e-6
695 694 -9.678857022508273e-7
694 695 -9.678857022501613e-7
695 695 1.998334399949396e-6
696 695 -9.772560940928085e-7
695 696 -9.772560940942167e-7
696 696 2.0145772153760278e-6
697 696 9.857022401230072e-7
696 697 9.857022401217949e-7
697 697 1.9782141007228133e-6
698 697 9.712009955287682e-7
697 698 9.712009955300036e-7
698 698 1.992860255770289e-6
699 698 9.978724565615107e-7
698 699 9.978724565608682e-7
699 699 2.0226967113017624e-6
700 699 9.8572167063078e-7
699 700 9.857216706308352e-7
700 700 2.0101614725613912e-6
701 700 -9.89718049095602e-7
700 701 -9.89718049097597e-7
701 701 2.033877629971619e-6
702 701 9.715641237488158e-7
701 702 9.7156412374792e-7
702 702 1.9829833440859235e-6
703 702 -9.76377300789019e-7
702 703 -9.763773007883504e-7
703 703 1.999666775953194e-6
704 703 -9.857269973868517e-7
703 704 -9.857269973868297e-7
704 704 1.999883634213051e-6
705 704 -9.645097339021279e-7
704 705 -9.64509733902498e-7
705 705 1.9770116408933455e-6
706 705 -9.79584674944321e-7
705 706 -9.795846749439714e-7
706 706 1.978714055629689e-6
707 706 9.784112909658938e-7
706 707 9.784112909668963e-7
707 707 2.0057249853686953e-6
708 707 9.93244152615959e-7
707 708 9.932441526153717e-7
708 708 2.0036266793556307e-6
709 708 -9.942651623125842e-7
708 709 -9.942651623130164e-7
709 709 2.0331640520575727e-6
710 709 -9.789579172017353e-7
709 710 -9.789579172017226e-7
710 710 1.9750504404334472e-6
711 710 -9.879177749124772e-7
710 711 -9.879177749128538e-7
711 711 2.0332807199343575e-6
712 711 -9.755652656711403e-7
711 712 -9.755652656711475e-7
712 712 2.009654220293423e-6
713 712 9.801589459163473e-7
712 713 9.801589459169716e-7
713 713 1.969444863752985e-6
714 713 -9.671594590921466e-7
713 714 -9.671594590916575e-7
714 714 1.993359679203035e-6
715 714 9.824916458740918e-7
714 715 9.824916458750462e-7
715 715 2.028149660318414e-6
716 715 -9.994853199813795e-7
715 716 -9.994853199809346e-7
716 716 2.0001368160512945e-6
717 716 -9.770914507883897e-7
716 717 -9.770914507879416e-7
717 717 1.9630491399032985e-6
718 717 9.793931391503529e-7
717 718 9.793931391498356e-7
718 718 1.9989944231914435e-6
719 718 -9.788747608106344e-7
718 719 -9.788747608106054e-7
719 719 2.016523767670718e-6
720 719 9.828701812538908e-7
719 720 9.82870181254324e-7
720 720 1.977061261116115e-6
721 720 -9.972378136651235e-7
720 721 -9.972378136645691e-7
721 721 2.0200180490838625e-6
722 721 -9.631930580814077e-7
721 722 -9.631930580815148e-7
722 722 2.0191912638908888e-6
723 722 9.906541561498425e-7
722 723 9.906541561519093e-7
723 723 1.9891085740725735e-6
724 723 9.983755272298834e-7
723 724 9.98375527230165e-7
724 724 1.985611621121832e-6
725 724 -9.687688061031892e-7
724 725 -9.68768806102055e-7
725 725 1.985293392646709e-6
726 725 9.720078495207207e-7
725 726 9.720078495206025e-7
726 726 2.0198725552728717e-6
727 726 -9.779298872067246e-7
726 727 -9.77929887207125e-7
727 727 1.9898434127753764e-6
728 727 9.861745334634488e-7
727 728 9.861745334632066e-7
728 728 1.9851938515238343e-6
729 728 9.735052973809164e-7
728 729 9.735052973795145e-7
729 729 1.9878713853698746e-6
730 729 9.80001576172219e-7
729 730 9.800015761725672e-7
730 730 1.970864626179445e-6
731 730 -9.827958057224664e-7
730 731 -9.82795805723113e-7
731 731 2.030366161884705e-6
732 731 9.92144882035969e-7
731 732 9.92144882035101e-7
732 732 1.982992470631726e-6
733 732 -9.796878801162263e-7
732 733 -9.79687880115901e-7
733 733 2.009545529519347e-6
734 733 -9.905991190692062e-7
733 734 -9.905991190691738e-7
734 734 1.971098660713314e-6
735 734 9.873379538730032e-7
734 735 9.873379538710908e-7
735 735 1.9941300793830686e-6
736 735 9.75232567036819e-7
735 736 9.752325670367463e-7
736 736 1.982058106065258e-6
737 736 -9.647919278256035e-7
736 737 -9.64791927825923e-7
737 737 2.0149940056240023e-6
738 737 9.932725014224644e-7
737 738 9.932725014221855e-7
738 738 1.979909017728206e-6
739 738 9.908396580563497e-7
738 739 9.908396580564443e-7
739 739 1.9772280856948444e-6
740 739 -9.763430829517585e-7
739 740 -9.763430829517828e-7
740 740 2.022091989852197e-6
741 740 -9.888310107179358e-7
740 741 -9.888310107182179e-7
741 741 2.0007372999714664e-6
742 741 9.733137627899732e-7
741 742 9.733137627911578e-7
742 742 1.97355366587379e-6
743 742 -9.842624683413382e-7
742 743 -9.842624683403476e-7
743 743 2.0482934423823554e-6
744 743 -9.97976357576501e-7
743 744 -9.979763575754965e-7
744 744 1.961370616103502e-6
745 744 -9.83198389924601e-7
744 745 -9.831983899262362e-7
745 745 2.012540437038444e-6
746 745 -9.902136578464252e-7
745 746 -9.902136578482389e-7
746 746 2.0371736081234315e-6
747 746 -9.78056478718736e-7
746 747 -9.780564787180945e-7
747 747 1.9644175528066616e-6
748 747 9.792891638167224e-7
747 748 9.792891638156202e-7
748 748 2.0243869284930143e-6
749 748 -9.78474223802277e-7
748 749 -9.784742238022313e-7
749 749 2.0097663137902346e-6
750 749 9.78160159194828e-7
749 750 9.781601591949724e-7
750 750 1.9928432984175093e-6
751 750 1.0002874935251772e-6
750 751 1.0002874935248392e-6
751 751 2.007369002075884e-6
752 751 -9.836356725483427e-7
751 752 -9.83635672548624e-7
752 752 1.9733548148373016e-6
753 752 9.865959126363672e-7
752 753 9.865959126358725e-7
753 753 2.0246795095998674e-6
754 753 9.755494205993365e-7
753 754 9.755494205985911e-7
754 754 1.9725523627909888e-6
755 754 9.776583645271115e-7
754 755 9.77658364526826e-7
755 755 2.0197797047509034e-6
756 755 -9.959436155606301e-7
755 756 -9.959436155593446e-7
756 756 1.9899922005594408e-6
757 756 9.654933483218534e-7
756 757 9.654933483221261e-7
757 757 1.9867536926251174e-6
758 757 9.809896142841192e-7
757 758 9.809896142831278e-7
758 758 1.9857190850892565e-6
759 758 9.980394929300925e-7
758 759 9.980394929302325e-7
759 759 2.0008501865677964e-6
760 759 -9.76914711408753e-7
759 760 -9.769147114095625e-7
760 760 2.0027118907138388e-6
761 760 -9.76276503154007e-7
760 761 -9.762765031544453e-7
761 761 2.034349025567325e-6
762 761 -9.984515100171583e-7
761 762 -9.984515100172188e-7
762 762 2.0104191476404047e-6
763 762 9.899686668422018e-7
762 763 9.899686668416364e-7
763 763 1.982645208213878e-6
764 763 -9.749100786250179e-7
763 764 -9.749100786248906e-7
764 764 2.013879805863615e-6
765 764 9.933039272975845e-7
764 765 9.933039272977635e-7
765 765 2.016937881952304e-6
766 765 -9.720925807099565e-7
765 766 -9.72092580709698e-7
766 766 1.9974418884295804e-6
767 766 -9.887263440112761e-7
766 767 -9.88726344011792e-7
767 767 2.021124447899691e-6
768 767 9.757616190405234e-7
767 768 9.757616190401545e-7
768 768 1.9752269023756376e-6
769 768 9.878598768385705e-7
768 769 9.878598768388002e-7
769 769 1.9923834914689137e-6
770 769 -9.76130039099906e-7
769 770 -9.761300390996048e-7
770 770 1.9979668515395205e-6
771 770 9.933717056025257e-7
770 771 9.933717056029236e-7
771 771 2.031716604811743e-6
772 771 9.741775880422694e-7
771 772 9.741775880424126e-7
772 772 1.981843279134774e-6
773 772 9.650748426851938e-7
772 773 9.650748426855598e-7
773 773 2.012267976797419e-6
774 773 -9.805319969636973e-7
773 774 -9.805319969637011e-7
774 774 1.976183311609789e-6
775 774 -9.94238380652931e-7
774 775 -9.942383806534942e-7
775 775 2.0114455433281584e-6
776 775 -9.831277306844985e-7
775 776 -9.831277306845546e-7
776 776 2.003201201049836e-6
777 776 9.888065779343555e-7
776 777 9.888065779343485e-7
777 777 2.005170924385839e-6
778 777 9.848829902303925e-7
777 778 9.848829902312957e-7
778 778 1.998154446348376e-6
779 778 9.760818628711617e-7
778 779 9.76081862871331e-7
779 779 1.98946186082935e-6
780 779 9.745550558036342e-7
779 780 9.745550558034396e-7
780 780 2.0255207547872795e-6
781 780 -9.835258568000436e-7
780 781 -9.83525856800608e-7
781 781 1.9521379290880908e-6
782 781 9.782363962927595e-7
781 782 9.782363962916395e-7
782 782 1.996031539003152e-6
783 782 9.7073583010313e-7
782 783 9.707358301033165e-7
783 783 2.0165231716035508e-6
784 783 9.857712013577505e-7
783 784 9.857712013578824e-7
784 784 2.018945555745663e-6
785 784 9.900268770385392e-7
784 785 9.900268770385254e-7
785 785 1.9982530001972686e-6
786 785 -9.944702421437017e-7
785 786 -9.94470242144322e-7
786 786 1.99016508832486e-6
787 786 -9.61201893884687e-7
786 787 -9.612018938857087e-7
787 787 2.033421126056207e-6
788 787 9.69974814062364e-7
787 788 9.699748140618674e-7
788 788 1.995368866524814e-6
789 788 -1.0035362287716592e-6
788 789 -1.0035362287720846e-6
789 789 1.985359713540072e-6
790 789 9.784202647056568e-7
789 790 9.784202647055787e-7
790 790 1.994592415851824e-6
791 790 -9.803483535089219e-7
790 791 -9.803483535089022e-7
791 791 2.0122731186684554e-6
792 791 9.742625408225855e-7
791 792 9.742625408211857e-7
792 792 2.025813334770044e-6
793 792 -9.65247833783293e-7
792 793 -9.652478337828269e-7
793 793 1.9829079107927256e-6
794 793 -9.79883346662542e-7
793 794 -9.798833466626068e-7
794 794 1.9841587980099804e-6
795 794 9.901291184324923e-7
794 795 9.90129118434227e-7
795 795 1.9982253216198634e-6
796 795 9.832533757636128e-7
795 796 9.832533757625117e-7
796 796 1.9944301182432277e-6
797 796 9.878622498378895e-7
796 797 9.878622498386285e-7
797 797 1.959375928259608e-6
798 797 -9.883124345616097e-7
797 798 -9.883124345622951e-7
798 798 2.0260715270530964e-6
799 798 9.770569907277078e-7
798 799 9.770569907278982e-7
799 799 2.0116390153601814e-6
800 799 9.86166711020688e-7
799 800 9.86166711021375e-7
800 800 2.015295775410074e-6
801 800 9.782250254101501e-7
800 801 9.782250254095818e-7
801 801 1.960854705753263e-6
802 801 -9.785701584013579e-7
801 802 -9.785701584002428e-7
802 802 2.01446359903618e-6
803 802 9.746589096057273e-7
802 803 9.746589096069034e-7
803 803 1.9929701707423344e-6
804 803 9.805107447888799e-7
803 804 9.80510744788018e-7
804 804 2.0044091482987303e-6
805 804 -9.776977553792082e-7
804 805 -9.776977553795482e-7
805 805 1.968576672098921e-6
806 805 9.87326528819182e-7
805 806 9.873265288186107e-7
806 806 2.031679841127667e-6
807 806 9.923563828716134e-7
806 807 9.923563828716733e-7
807 807 1.9971795048213864e-6
808 807 9.730079927834147e-7
807 808 9.730079927838795e-7
808 808 1.9958900051097753e-6
809 808 -9.805646661902916e-7
808 809 -9.805646661899776e-7
809 809 1.9734135430227625e-6
810 809 -9.838734153154622e-7
809 810 -9.838734153153328e-7
810 810 2.0169501844390354e-6
811 810 9.79331910807503e-7
810 811 9.793319108070318e-7
811 811 1.998460872524586e-6
812 811 9.815562658276775e-7
811 812 9.815562658276386e-7
812 812 2.0152320023514035e-6
813 812 9.84540825859876e-7
812 813 9.84540825858906e-7
813 813 1.981057123819118e-6
814 813 -9.71993521834709e-7
813 814 -9.719935218350045e-7
814 814 2.0107627525344976e-6
815 814 -9.774078155161599e-7
814 815 -9.774078155157976e-7
815 815 2.005665580136531e-6
816 815 -9.805221524228326e-7
815 816 -9.80522152423113e-7
816 816 2.0056571626010736e-6
817 816 -9.843298469144457e-7
816 817 -9.843298469151216e-7
817 817 1.940183739635154e-6
818 817 9.66580423933321e-7
817 818 9.665804239339127e-7
818 818 2.012491136664869e-6
819 818 -9.681687462441175e-7
818 819 -9.681687462444849e-7
819 819 2.0223862192769785e-6
820 819 9.835517099530675e-7
819 820 9.835517099532895e-7
820 820 2.0138295438999604e-6
821 820 -9.77821563369757e-7
820 821 -9.7782156336895e-7
821 821 2.0078252978627376e-6
822 821 -9.737420152084766e-7
821 822 -9.737420152088768e-7
822 822 1.9907722494110127e-6
823 822 -9.818728460442749e-7
822 823 -9.818728460432987e-7
823 823 1.9863702852044833e-6
824 823 9.686538756830885e-7
823 824 9.686538756824659e-7
824 824 2.006297785810919e-6
825 824 -9.891054516771253e-7
824 825 -9.891054516764684e-7
825 825 2.0078323422533284e-6
826 825 -9.797357474399897e-7
825 826 -9.797357474398124e-7
826 826 1.9972841895161866e-6
827 826 9.80692210927998e-7
826 827 9.806922109284198e-7
827 827 1.9965257517805275e-6
828 827 9.663212804902013e-7
827 828 9.66321280489971e-7
828 828 2.0085145814550348e-6
829 828 -9.912207135097955e-7
828 829 -9.912207135095231e-7
829 829 2.010170505465923e-6
830 829 -9.786831814508959e-7
829 830 -9.786831814519708e-7
830 830 1.9958449091808375e-6
831 830 9.726881325184553e-7
830 831 9.726881325179324e-7
831 831 2.0258655606048857e-6
832 831 9.72930079461125e-7
831 832 9.72930079461603e-7
832 832 1.983432771484e-6
833 832 9.806554857473147e-7
832 833 9.806554857463857e-7
833 833 1.9770449695823943e-6
834 833 -9.753603965948417e-7
833 834 -9.753603965955185e-7
834 834 1.9983067746668307e-6
835 834 9.750723275968125e-7
834 835 9.750723275973635e-7
835 835 1.9928327182413846e-6
836 835 -9.81580888165093e-7
835 836 -9.815808881642646e-7
836 836 1.9960415487400345e-6
837 836 -9.828442994452016e-7
836 837 -9.828442994453246e-7
837 837 1.9956133818077206e-6
838 837 9.68684386057572e-7
837 838 9.686843860573666e-7
838 838 1.987607576335903e-6
839 838 -9.781167154814416e-7
838 839 -9.781167154818143e-7
839 839 2.017184561095438e-6
840 839 9.71566699374678e-7
839 840 9.715666993752254e-7
840 840 2.0130145709500133e-6
841 840 9.92412206719116e-7
840 841 9.924122067203505e-7
841 841 1.9780325775231626e-6
842 841 -9.647178718585106e-7
841 842 -9.647178718588118e-7
842 842 2.026362095172816e-6
843 842 9.817803212812344e-7
842 843 9.817803212820422e-7
843 843 1.993165112992754e-6
844 843 9.78184488367571e-7
843 844 9.781844883672462e-7
844 844 1.9885701862678326e-6
845 844 9.659209097367106e-7
844 845 9.659209097370524e-7
845 845 2.022364692625585e-6
846 845 9.763855028103842e-7
845 846 9.763855028099395e-7
846 846 2.0055755469578896e-6
847 846 9.750538036556876e-7
846 847 9.750538036550318e-7
847 847 1.9720581074540028e-6
848 847 9.858358132534966e-7
847 848 9.85835813253767e-7
848 848 1.9973670198083782e-6
849 848 9.797957159515233e-7
848 849 9.797957159529514e-7
849 849 2.00347194023068e-6
850 849 -9.75521355431304e-7
849 850 -9.755213554310285e-7
850 850 1.988355083178146e-6
851 850 9.84203062789268e-7
850 851 9.842030627896356e-7
851 851 2.009544221523694e-6
852 851 -9.597124924405932e-7
851 852 -9.597124924400725e-7
852 852 1.9966964940832376e-6
853 852 -9.92739613445168e-7
852 853 -9.927396134454805e-7
853 853 2.002991736478195e-6
854 853 -9.772267994652795e-7
853 854 -9.772267994662123e-7
854 854 1.9795764711623817e-6
855 854 9.71835668802601e-7
854 855 9.718356688026285e-7
855 855 2.0117205330132057e-6
856 855 -9.734583875216059e-7
855 856 -9.73458387522029e-7
856 856 2.001443999301711e-6
857 856 9.770838164038044e-7
856 857 9.770838164033049e-7
857 857 1.991430026733963e-6
858 857 -9.751803104873113e-7
857 858 -9.751803104881696e-7
858 858 1.964883428745171e-6
859 858 -9.631246513358563e-7
858 859 -9.631246513362523e-7
859 859 1.9999771487109415e-6
860 859 -9.81215803707521e-7
859 860 -9.812158037082418e-7
860 860 2.00011953269048e-6
861 860 9.850951630754876e-7
860 861 9.85095163076013e-7
861 861 2.0215981071250317e-6
862 861 -9.619575848710022e-7
861 862 -9.619575848712292e-7
862 862 1.99701670501067e-6
863 862 9.786672087808334e-7
862 863 9.786672087794216e-7
863 863 1.9988153718039154e-6
864 863 -9.831375187468293e-7
863 864 -9.831375187476843e-7
864 864 2.0224031906022026e-6
865 864 -9.699026213657707e-7
864 865 -9.69902621366448e-7
865 865 1.9937564207258168e-6
866 865 9.734100452462223e-7
865 866 9.734100452475176e-7
866 866 2.015324104641352e-6
867 866 -9.815569214649764e-7
866 867 -9.815569214649126e-7
867 867 1.978344976817056e-6
868 867 9.60732889442488e-7
867 868 9.607328894418928e-7
868 868 1.9930950856808653e-6
869 868 9.86935374741065e-7
868 869 9.869353747410088e-7
869 869 2.007592526907691e-6
870 869 -9.656939363722728e-7
869 870 -9.656939363715156e-7
870 870 1.996106391898674e-6
871 870 -9.854718352706494e-7
870 871 -9.85471835271116e-7
871 871 1.981438682412977e-6
872 871 9.70156877302587e-7
871 872 9.70156877303212e-7
872 872 2.012459756584824e-6
873 872 -9.840568613643014e-7
872 873 -9.840568613644198e-7
873 873 1.9666341352851115e-6
874 873 9.735253519321435e-7
873 874 9.735253519332135e-7
874 874 2.0596419357607647e-6
875 874 9.745746668772226e-7
874 875 9.745746668768087e-7
875 875 2.0305679061635395e-6
876 875 9.731306998029852e-7
875 876 9.731306998027928e-7
876 876 1.99511218632461e-6
877 876 9.745793136225847e-7
876 877 9.745793136232288e-7
877 877 1.994846608238699e-6
878 877 9.78165801524191e-7
877 878 9.781658015240639e-7
878 878 2.0242916008730808e-6
879 878 -9.804264592439776e-7
878 879 -9.80426459243863e-7
879 879 1.9938897939791762e-6
880 879 -9.733507445837034e-7
879 880 -9.733507445831639e-7
880 880 1.9845418718733174e-6
881 880 9.749161103250218e-7
880 881 9.749161103256483e-7
881 881 2.004343447468058e-6
882 881 9.982332646414974e-7
881 882 9.982332646404903e-7
882 882 2.042665473167649e-6
883 882 -9.757666584461947e-7
882 883 -9.75766658445843e-7
883 883 1.972216066365947e-6
884 883 9.647427604656836e-7
883 884 9.647427604660985e-7
884 884 1.9996988231825065e-6
885 884 9.755516676020587e-7
884 885 9.755516676016589e-7
885 885 1.998653702545835e-6
886 885 -9.951116679374102e-7
885 886 -9.9511166793679e-7
886 886 2.01171908417588e-6
887 886 9.55810045096354e-7
886 887 9.558100450972721e-7
887 887 1.99595567964635e-6
888 887 9.644020763668656e-7
887 888 9.644020763672599e-7
888 888 1.9778477291536066e-6
889 888 9.820443572341002e-7
888 889 9.820443572344718e-7
889 889 2.020865689422185e-6
890 889 -9.703965729750979e-7
889 890 -9.703965729747254e-7
890 890 1.9986797184998027e-6
891 890 -9.847883244271266e-7
890 891 -9.847883244261328e-7
891 891 2.0043027834417337e-6
892 891 9.57811546064529e-7
891 892 9.578115460643628e-7
892 892 2.008582853506867e-6
893 892 -9.783986619105263e-7
892 893 -9.783986619112284e-7
893 893 2.0181445688608875e-6
894 893 -9.683638609784862e-7
893 894 -9.683638609795196e-7
894 894 2.01515853047595e-6
895 894 9.801190840190853e-7
894 895 9.801190840185766e-7
895 895 1.974916634901835e-6
896 895 -9.830830594404436e-7
895 896 -9.83083059439483e-7
896 896 2.0158132733835073e-6
897 896 -9.728514972002438e-7
896 897 -9.7285149720146e-7
897 897 2.006038745509117e-6
898 897 9.740904190780081e-7
897 898 9.74090419078458e-7
898 898 1.9892125222357948e-6
899 898 9.691875056369265e-7
898 899 9.691875056360422e-7
899 899 2.016198245192915e-6
900 899 -9.695219536700066e-7
899 900 -9.695219536710594e-7
900 900 1.97119781945943e-6
901 900 9.787902666973736e-7
900 901 9.78790266697334e-7
901 901 1.9852297994497904e-6
902 901 -9.534004899013533e-7
901 902 -9.534004899022157e-7
902 902 2.00186743798697e-6
903 902 -9.971507552671548e-7
902 903 -9.971507552667757e-7
903 903 1.9811118853188132e-6
904 903 -9.5843700458109e-7
903 904 -9.58437004582723e-7
904 904 1.9917197749751957e-6
905 904 9.843814789102612e-7
904 905 9.843814789095217e-7
905 905 1.9847917024802925e-6
906 905 -9.473878485771815e-7
905 906 -9.473878485791591e-7
906 906 1.989324975105142e-6
907 906 -9.847779459482341e-7
906 907 -9.84777945947467e-7
907 907 2.0143155435312016e-6
908 907 9.652309769988045e-7
907 908 9.652309769993405e-7
908 908 2.0154232670652393e-6
909 908 -9.852997193412211e-7
908 909 -9.852997193412118e-7
909 909 2.0185300753462312e-6
910 909 9.708704471340175e-7
909 910 9.70870447133745e-7
910 910 1.99796595669625e-6
911 910 9.840399503958675e-7
910 911 9.840399503949434e-7
911 911 1.957098783326087e-6
912 911 9.674793474388721e-7
911 912 9.67479347439277e-7
912 912 2.0279211200160145e-6
913 912 -9.778806119058313e-7
912 913 -9.778806119060661e-7
913 913 1.9961025556078786e-6
914 913 -9.72822547275974e-7
913 914 -9.728225472761505e-7
914 914 1.959226134826272e-6
915 914 9.633498695446927e-7
914 915 9.63349869545334e-7
915 915 2.01059689200108e-6
916 915 -9.690463646269918e-7
915 916 -9.69046364625097e-7
916 916 2.015625784546874e-6
917 916 -9.739816946021134e-7
916 917 -9.739816946031277e-7
917 917 1.9990564270980467e-6
918 917 -9.715690001297268e-7
917 918 -9.715690001291773e-7
918 918 1.984125447549857e-6
919 918 9.654742343670806e-7
918 919 9.654742343663888e-7
919 919 2.024390146903972e-6
920 919 9.760257151423331e-7
919 920 9.760257151417836e-7
920 920 2.027486869727945e-6
921 920 -9.887609995389912e-7
920 921 -9.88760999539554e-7
921 921 1.988959906263482e-6
922 921 9.62502955204365e-7
921 922 9.62502955205265e-7
922 922 1.9674264870600725e-6
923 922 -9.703107853351975e-7
922 923 -9.703107853341408e-7
923 923 2.001193479681966e-6
924 923 -9.837050068370688e-7
923 924 -9.83705006837141e-7
924 924 1.9912199930540154e-6
925 924 -9.71555497759272e-7
924 925 -9.715554977594101e-7
925 925 1.998273859656479e-6
926 925 9.3754522333668e-7
925 926 9.375452233379215e-7
926 926 2.032497551336158e-6
927 926 -9.84162846718952e-7
926 927 -9.841628467187076e-7
927 927 1.964696991482997e-6
928 927 9.783909940900084e-7
927 928 9.783909940902282e-7
928 928 2.0139710746510837e-6
929 928 9.79108261375629e-7
928 929 9.791082613756916e-7
929 929 1.9905592312471613e-6
930 929 -9.722655602708915e-7
929 930 -9.722655602712723e-7
930 930 2.006707626828986e-6
931 930 9.749813229526006e-7
930 931 9.749813229518295e-7
931 931 2.012858291281332e-6
932 931 -9.819753314290883e-7
931 932 -9.819753314291641e-7
932 932 2.0163833179870897e-6
933 932 9.550682394120498e-7
932 933 9.550682394102766e-7
933 933 2.0058555668014246e-6
934 933 9.829464706423002e-7
933 934 9.829464706428097e-7
934 934 1.997238526932911e-6
935 934 -9.831289929954917e-7
934 935 -9.831289929937669e-7
935 935 1.975245337242198e-6
936 935 -9.67007143163418e-7
935 936 -9.670071431641082e-7
936 936 1.9909931986633722e-6
937 936 -9.716174554722626e-7
936 937 -9.716174554709813e-7
937 937 2.030982147974119e-6
938 937 -9.713966498338384e-7
937 938 -9.713966498355073e-7
938 938 2.0046904769864734e-6
939 938 -9.811861241316222e-7
938 939 -9.811861241310604e-7
939 939 1.9922043544812016e-6
940 939 -9.818536375474113e-7
939 940 -9.818536375476982e-7
940 940 2.0037607160760026e-6
941 940 9.516135685244731e-7
940 941 9.516135685251566e-7
941 941 1.9587446954116644e-6
942 941 9.766276608897745e-7
941 942 9.766276608896036e-7
942 942 1.986625945606646e-6
943 942 9.751576980776071e-7
942 943 9.751576980780317e-7
943 943 1.9964275304838313e-6
944 943 9.78550009564702e-7
943 944 9.785500095637642e-7
944 944 1.9899405915171066e-6
945 944 -9.66683385365494e-7
944 945 -9.666833853665041e-7
945 945 2.013062495894208e-6
946 945 9.633450177954678e-7
945 946 9.633450177957897e-7
946 946 1.986586600518334e-6
947 946 -9.738498097396781e-7
946 947 -9.738498097393732e-7
947 947 2.0432052846605204e-6
948 947 9.834724788242635e-7
947 948 9.834724788244406e-7
948 948 1.9959791820708764e-6
949 948 9.594911405763256e-7
948 949 9.594911405762144e-7
949 949 2.015899573492073e-6
950 949 9.697781185668358e-7
949 950 9.697781185647565e-7
950 950 1.984633248034445e-6
951 950 9.675522890736829e-7
950 951 9.675522890731943e-7
951 951 2.008624743468091e-6
952 951 9.789644336029902e-7
951 952 9.78964433602752e-7
952 952 2.0393162270568298e-6
953 952 -9.654195187291196e-7
952 953 -9.654195187291719e-7
953 953 1.9453299101368984e-6
954 953 -9.826249789027987e-7
953 954 -9.826249789031346e-7
954 954 1.998308968896177e-6
955 954 -9.858360171325605e-7
954 955 -9.858360171339473e-7
955 955 2.046267094553164e-6
956 955 9.780971784101028e-7
955 956 9.780971784081713e-7
956 956 2.0101278159691978e-6
957 956 9.601842433909157e-7
956 957 9.601842433902042e-7
957 957 2.0130440576950868e-6
958 957 -9.71401717178918e-7
957 958 -9.714017171790652e-7
958 958 1.986763217818287e-6
959 958 -9.824031753120216e-7
958 959 -9.824031753115149e-7
959 959 1.9786254696372063e-6
960 959 -9.621912517021657e-7
959 960 -9.621912517024446e-7
960 960 2.014076333786845e-6
961 960 -9.646471254501298e-7
960 961 -9.646471254496737e-7
961 961 2.0179700821388584e-6
962 961 9.86434128141027e-7
961 962 9.864341281409496e-7
962 962 1.976780787630503e-6
963 962 -9.703791120559619e-7
962 963 -9.703791120556264e-7
963 963 1.98688007101446e-6
964 963 -9.739595099975118e-7
963 964 -9.739595099973081e-7
964 964 2.0002693894909453e-6
965 964 -9.73354298032755e-7
964 965 -9.733542980338653e-7
965 965 1.9945754713174696e-6
966 965 9.639993204299438e-7
965 966 9.63999320429498e-7
966 966 1.9831777639868457e-6
967 966 -9.68250211043351e-7
966 967 -9.682502110445887e-7
967 967 1.9664456502204447e-6
968 967 -9.68710302090281e-7
967 968 -9.687103020893514e-7
968 968 2.0141234052571156e-6
969 968 -9.6649026837994e-7
968 969 -9.664902683799168e-7
969 969 2.002178778519165e-6
970 969 9.654353058325738e-7
969 970 9.654353058326776e-7
970 970 2.0323731581574304e-6
971 970 -9.687898097242595e-7
970 971 -9.687898097226903e-7
971 971 2.0150967635636214e-6
972 971 -9.571673201759164e-7
971 972 -9.571673201750956e-7
972 972 1.9956059042016856e-6
973 972 -9.696442400858506e-7
972 973 -9.696442400869547e-7
973 973 2.0158087507999223e-6
974 973 9.643003492167866e-7
973 974 9.643003492157534e-7
974 974 2.004552405921527e-6
975 974 -9.67154426690285e-7
974 975 -9.671544266913929e-7
975 975 2.0266698867138097e-6
976 975 9.659861548435024e-7
975 976 9.659861548415373e-7
976 976 1.9772526302632316e-6
977 976 9.732426364123148e-7
976 977 9.73242636412062e-7
977 977 2.0315464966334456e-6
978 977 9.567828246236395e-7
977 978 9.567828246242902e-7
978 978 1.9524708933665663e-6
979 978 9.689994919667716e-7
978 979 9.689994919678257e-7
979 979 2.0102279118947056e-6
980 979 9.773683029103086e-7
979 980 9.773683029095238e-7
980 980 2.023029712725e-6
981 980 9.828452735260625e-7
980 981 9.828452735260582e-7
981 981 1.9856104028916342e-6
982 981 -9.57450940675694e-7
981 982 -9.574509406751893e-7
982 982 2.010432967500284e-6
983 982 -9.832532439381138e-7
982 983 -9.832532439386312e-7
983 983 1.952920327283818e-6
984 983 9.585982322702515e-7
983 984 9.585982322705776e-7
984 984 1.9976060657007245e-6
985 984 9.860117359431522e-7
984 985 9.860117359423475e-7
985 985 2.0048276857387828e-6
986 985 -9.59496010442534e-7
985 986 -9.594960104428917e-7
986 986 2.0045505800014257e-6
987 986 -9.746135447067124e-7
986 987 -9.746135447062357e-7
987 987 2.0059439995607898e-6
988 987 9.493958317896211e-7
987 988 9.49395831789948e-7
988 988 1.9914008146967705e-6
989 988 9.677399674689309e-7
988 989 9.677399674700024e-7
989 989 1.9838684537977763e-6
990 989 -9.521304295572953e-7
989 990 -9.521304295565146e-7
990 990 1.9943124700306866e-6
991 990 9.682966087642754e-7
990 991 9.68296608764029e-7
991 991 1.9960988758206043e-6
992 991 9.668988309549649e-7
991 992 9.668988309548344e-7
992 992 2.0227172068649783e-6
993 992 9.758626522791305e-7
992 993 9.758626522811134e-7
993 993 1.979293756265234e-6
994 993 9.699090693162707e-7
993 994 9.699090693156794e-7
994 994 2.0074971690200582e-6
995 994 9.58458530845808e-7
994 995 9.584585308454792e-7
995 995 1.9853738195626743e-6
996 995 9.729961223074655e-7
995 996 9.72996122306674e-7
996 996 2.015984993573755e-6
997 996 -9.703590103358124e-7
996 997 -9.70359010334479e-7
997 997 1.9780629475801097e-6
998 997 -9.667506306227236e-7
997 998 -9.667506306222461e-7
998 998 2.0188269802636925e-6
999 998 -9.720630797230044e-7
998 999 -9.720630797238267e-7
999 999 2.01468233785081e-6
1000 999 9.622329970168617e-7
999 1000 9.622329970168107e-7
1000 1000 1.9981986478676506e-6
1001 1000 -9.586787359079743e-7
1000 1001 -9.586787359072416e-7
1001 1001 1.9850859788593874e-6
1002 1001 9.791025016248305e-7
1001 1002 9.791025016255372e-7
1002 1002 1.9997322910788867e-6
1003 1002 9.632591725252986e-7
1002 1003 9.632591725251114e-7
1003 1003 1.9714459969498126e-6
1004 1003 -9.615870642263847e-7
1003 1004 -9.615870642249668e-7
1004 1004 2.036494922196139e-6
1005 1004 9.672527302853568e-7
1004 1005 9.672527302862646e-7
1005 1005 1.9872071182248343e-6
1006 1005 -9.56561922249118e-7
1005 1006 -9.56561922249316e-7
1006 1006 2.0022091177586997e-6
1007 1006 9.601548044145653e-7
1006 1007 9.601548044142587e-7
1007 1007 2.0287055434511383e-6
1008 1007 -9.718419771441719e-7
1007 1008 -9.718419771441877e-7
1008 1008 1.978539943952253e-6
1009 1008 -9.7688285107485e-7
1008 1009 -9.768828510754588e-7
1009 1009 1.9833387876625444e-6
1010 1009 -9.936423235203465e-7
1009 1010 -9.936423235205363e-7
1010 1010 2.0354592672457225e-6
1011 1010 -9.612171495638616e-7
1010 1011 -9.612171495635362e-7
1011 1011 1.9862712560226665e-6
1012 1011 -9.82147382180616e-7
1011 1012 -9.821473821800945e-7
1012 1012 1.9986160883825312e-6
1013 1012 9.577866351712826e-7
1012 1013 9.57786635170962e-7
1013 1013 2.0014818377019463e-6
1014 1013 9.762829816315114e-7
1013 1014 9.76282981632211e-7
1014 1014 2.0114760649780365e-6
1015 1014 9.608005279403206e-7
1014 1015 9.608005279408635e-7
1015 1015 2.0063535826032606e-6
1016 1015 -9.72189517111846e-7
1015 1016 -9.72189517111069e-7
1016 1016 2.022895299212336e-6
1017 1016 -9.731992203672544e-7
1016 1017 -9.73199220365538e-7
1017 1017 2.001659241629346e-6
1018 1017 -9.632117318239806e-7
1017 1018 -9.632117318251145e-7
1018 1018 2.0099411439852364e-6
1019 1018 9.664488620935914e-7
1018 1019 9.664488620928515e-7
1019 1019 1.99523197466804e-6
1020 1019 -9.608363592615786e-7
1019 1020 -9.608363592618552e-7
1020 1020 2.004614303351134e-6
1021 1020 -9.63131603546031e-7
1020 1021 -9.631316035442404e-7
1021 1021 2.011865866044488e-6
1022 1021 9.73800718999834e-7
1021 1022 9.738007190005502e-7
1022 1022 1.9782443546360855e-6
1023 1022 9.723828027742862e-7
1022 1023 9.723828027761391e-7
1023 1023 1.9832526272617327e-6
1024 1023 9.555162911395236e-7
1023 1024 9.555162911377755e-7
1024 1024 2.0068788261109057e-6
1025 1024 9.583080531353867e-7
1024 1025 9.583080531369173e-7
1025 1025 2.003720844985141e-6
1026 1025 9.46968575018016e-7
1025 1026 9.46968575016868e-7
1026 1026 1.979015692434218e-6
1027 1026 9.879053801888874e-7
1026 1027 9.879053801885147e-7
1027 1027 1.999375815594226e-6
1028 1027 9.636403789011356e-7
1027 1028 9.636403789006168e-7
1028 1028 2.011876426505262e-6
1029 1028 9.749297867966428e-7
1028 1029 9.749297867959505e-7
1029 1029 2.0127431279442093e-6
1030 1029 9.646887335237429e-7
1029 1030 9.646887335231571e-7
1030 1030 2.0056565451487914e-6
1031 1030 9.596248588200982e-7
1030 1031 9.596248588207492e-7
1031 1031 1.978148549100809e-6
1032 1031 9.625585398519681e-7
1031 1032 9.625585398520228e-7
1032 1032 2.0124361764789767e-6
1033 1032 -9.5833035471368e-7
1032 1033 -9.583303547142997e-7
1033 1033 2.009817508344726e-6
1034 1033 9.636775170610601e-7
1033 1034 9.636775170616223e-7
1034 1034 2.0067116134352287e-6
1035 1034 9.67306650596885e-7
1034 1035 9.673066505965844e-7
1035 1035 1.990678461471526e-6
1036 1035 9.800768042152462e-7
1035 1036 9.80076804215215e-7
1036 1036 2.010063637969041e-6
1037 1036 9.58123164439684e-7
1036 1037 9.581231644392553e-7
1037 1037 1.9770797672786083e-6
1038 1037 9.626851069629846e-7
1037 1038 9.6268510696293e-7
1038 1038 2.004161766212691e-6
1039 1038 9.641997887481472e-7
1038 1039 9.64199788747691e-7
1039 1039 2.0073098653880837e-6
1040 1039 9.643877048877688e-7
1039 1040 9.64387704888323e-7
1040 1040 1.9748971355932854e-6
1041 1040 9.64195652001125e-7
1040 1041 9.641956520008834e-7
1041 1041 1.9889235894888456e-6
1042 1041 -9.610436295346995e-7
1041 1042 -9.610436295352843e-7
1042 1042 2.001114335782521e-6
1043 1042 9.690675118258774e-7
1042 1043 9.690675118265936e-7
1043 1043 1.9702878047880483e-6
1044 1043 -9.581118116537222e-7
1043 1044 -9.581118116543556e-7
1044 1044 2.003015430351413e-6
1045 1044 -9.710555397775895e-7
1044 1045 -9.7105553977762e-7
1045 1045 2.0255399482237132e-6
1046 1045 -9.543901396658346e-7
1045 1046 -9.543901396658497e-7
1046 1046 1.9834916339813044e-6
1047 1046 -9.701090980967653e-7
1046 1047 -9.701090980973232e-7
1047 1047 1.988088842094699e-6
1048 1047 9.6317879456254e-7
1047 1048 9.631787945624334e-7
1048 1048 2.00199031751712e-6
1049 1048 -9.730518592074411e-7
1048 1049 -9.730518592060406e-7
1049 1049 1.9945241178072366e-6
1050 1049 -9.537395036348467e-7
1049 1050 -9.537395036347486e-7
1050 1050 2.0072913010967527e-6
1051 1050 -9.6963384590406e-7
1050 1051 -9.69633845902328e-7
1051 1051 1.983263750765841e-6
1052 1051 -9.634790812067912e-7
1051 1052 -9.63479081205931e-7
1052 1052 2.0145768271054925e-6
1053 1052 9.615275195021239e-7
1052 1053 9.61527519502218e-7
1053 1053 2.0169707744564356e-6
1054 1053 9.603095168601359e-7
1053 1054 9.603095168593028e-7
1054 1054 2.000300442408611e-6
1055 1054 -9.61454099211117e-7
1054 1055 -9.61454099211856e-7
1055 1055 2.0011455143622704e-6
1056 1055 -9.684712922319009e-7
1055 1056 -9.684712922313173e-7
1056 1056 2.010738008689805e-6
1057 1056 -9.588472151265578e-7
1056 1057 -9.588472151264445e-7
1057 1057 2.0003907332223496e-6
1058 1057 -9.5514071240812e-7
1057 1058 -9.55140712408454e-7
1058 1058 1.9749768832191116e-6
1059 1058 9.539403843496557e-7
1058 1059 9.539403843497488e-7
1059 1059 2.003904298241054e-6
1060 1059 -9.86446316606249e-7
1059 1060 -9.864463166056579e-7
1060 1060 1.9933954500507267e-6
1061 1060 9.61150626371052e-7
1060 1061 9.611506263710155e-7
1061 1061 1.9914373387458415e-6
1062 1061 9.700071316473868e-7
1061 1062 9.700071316483582e-7
1062 1062 1.987997558318283e-6
1063 1062 9.551066304399994e-7
1062 1063 9.551066304390226e-7
1063 1063 2.005018830253642e-6
1064 1063 -9.635529645635673e-7
1063 1064 -9.635529645632962e-7
1064 1064 1.9847167609963713e-6
1065 1064 9.529963087197981e-7
1064 1065 9.529963087194761e-7
1065 1065 1.9621294919693523e-6
1066 1065 -9.57778241929139e-7
1065 1066 -9.57778241929534e-7
1066 1066 2.0054602041868662e-6
1067 1066 9.679016041660934e-7
1066 1067 9.679016041666488e-7
1067 1067 2.0431182908347264e-6
1068 1067 9.78021954644949e-7
1067 1068 9.780219546440589e-7
1068 1068 2.036190203803593e-6
1069 1068 9.513444571627126e-7
1068 1069 9.513444571638949e-7
1069 1069 2.005862640074752e-6
1070 1069 9.656081807954096e-7
1069 1070 9.656081807953823e-7
1070 1070 1.999285530400406e-6
1071 1070 9.697747782840589e-7
1070 1071 9.69774778282993e-7
1071 1071 1.9961078195040082e-6
1072 1071 -9.61234512811734e-7
1071 1072 -9.612345128121335e-7
1072 1072 1.993918369123271e-6
1073 1072 -9.508074601599782e-7
1072 1073 -9.508074601590926e-7
1073 1073 1.9942715651022447e-6
1074 1073 -9.71353491892088e-7
1073 1074 -9.713534918921096e-7
1074 1074 1.9674561262419275e-6
1075 1074 9.77372239852364e-7
1074 1075 9.77372239851379e-7
1075 1075 2.0048081326160578e-6
1076 1075 9.563485765889211e-7
1075 1076 9.563485765890804e-7
1076 1076 2.021126272278377e-6
1077 1076 -9.621554137560752e-7
1076 1077 -9.621554137561404e-7
1077 1077 1.9740131312224837e-6
1078 1077 9.641858713820814e-7
1077 1078 9.64185871379895e-7
1078 1078 2.0322308548318072e-6
1079 1078 9.744642215735502e-7
1078 1079 9.744642215735295e-7
1079 1079 2.0031653911737392e-6
1080 1079 9.617376887441167e-7
1079 1080 9.617376887443854e-7
1080 1080 2.017712588959282e-6
1081 1080 9.645583826713973e-7
1080 1081 9.645583826709012e-7
1081 1081 1.9878894474188125e-6
1082 1081 -9.550225138377607e-7
1081 1082 -9.550225138383547e-7
1082 1082 2.0045037482013296e-6
1083 1082 9.74206647211319e-7
1082 1083 9.74206647211462e-7
1083 1083 2.007525547601824e-6
1084 1083 -9.517778231433425e-7
1083 1084 -9.51777823143456e-7
1084 1084 1.99329509772505e-6
1085 1084 -9.646088603848456e-7
1084 1085 -9.646088603852418e-7
1085 1085 2.0037861663835892e-6
1086 1085 -9.533752139719705e-7
1085 1086 -9.533752139712271e-7
1086 1086 2.014748566640116e-6
1087 1086 9.629345724830542e-7
1086 1087 9.629345724830432e-7
1087 1087 2.0005029060496843e-6
1088 1087 9.59673860850345e-7
1087 1088 9.596738608496932e-7
1088 1088 2.0086491874391586e-6
1089 1088 -9.642027533331463e-7
1088 1089 -9.64202753331809e-7
1089 1089 1.9857539277900212e-6
1090 1089 9.690987874681544e-7
1089 1090 9.690987874693046e-7
1090 1090 2.022298796120644e-6
1091 1090 9.565897505197326e-7
1090 1091 9.565897505203867e-7
1091 1091 1.9820314296359327e-6
1092 1091 -9.495558603794088e-7
1091 1092 -9.495558603803125e-7
1092 1092 1.9902772347199196e-6
1093 1092 9.688388607096348e-7
1092 1093 9.688388607095253e-7
1093 1093 1.993493180208081e-6
1094 1093 9.734551615602892e-7
1093 1094 9.734551615605522e-7
1094 1094 2.002469417007917e-6
1095 1094 9.69148135642836e-7
1094 1095 9.69148135642914e-7
1095 1095 2.029296184641619e-6
1096 1095 9.529067203195163e-7
1095 1096 9.529067203191838e-7
1096 1096 1.9777333304021925e-6
1097 1096 -9.472446132655584e-7
1096 1097 -9.472446132657353e-7
1097 1097 2.031978029070738e-6
1098 1097 9.652273917025198e-7
1097 1098 9.652273917015127e-7
1098 1098 1.9947102036565983e-6
1099 1098 9.709969109311437e-7
1098 1099 9.70996910931438e-7
1099 1099 2.0061193046363817e-6
1100 1099 -9.585181123063048e-7
1099 1100 -9.585181123061966e-7
1100 1100 1.9747621492553067e-6
1101 1100 -9.522711975589439e-7
1100 1101 -9.522711975591075e-7
1101 1101 2.033876622099621e-6
1102 1101 -9.964865753890505e-7
1101 1102 -9.964865753876101e-7
1102 1102 1.992865932702082e-6
1103 1102 -9.536343034470554e-7
1102 1103 -9.536343034470326e-7
1103 1103 1.9981711709598146e-6
1104 1103 -9.583231054210718e-7
1103 1104 -9.583231054217458e-7
1104 1104 2.020163288701545e-6
1105 1104 -9.697462718640365e-7
1104 1105 -9.697462718636355e-7
1105 1105 2.006499519171112e-6
1106 1105 9.57367848148741e-7
1105 1106 9.57367848148144e-7
1106 1106 1.9997119855920585e-6
1107 1106 9.525640715937836e-7
1106 1107 9.525640715944038e-7
1107 1107 1.9900743134901645e-6
1108 1107 -9.630736220973183e-7
1107 1108 -9.630736220969137e-7
1108 1108 1.990726565749352e-6
1109 1108 9.67064179680575e-7
1108 1109 9.6706417968048e-7
1109 1109 1.9997350255763153e-6
1110 1109 -9.744598439665612e-7
1109 1110 -9.744598439672153e-7
1110 1110 2.0169815663367813e-6
1111 1110 9.427663216728377e-7
1110 1111 9.427663216727523e-7
1111 1111 2.0088854906740523e-6
1112 1111 9.618214932026336e-7
1111 1112 9.618214932031011e-7
1112 1112 1.9798018100565476e-6
1113 1112 -9.569791703784634e-7
1112 1113 -9.569791703784695e-7
1113 1113 1.9952941643049198e-6
1114 1113 -9.601293714746009e-7
1113 1114 -9.60129371473911e-7
1114 1114 1.9907162778292553e-6
1115 1114 -9.5494748397622e-7
1114 1115 -9.549474839765402e-7
1115 1115 2.0206423691207395e-6
1116 1115 9.687434652469384e-7
1115 1116 9.687434652456232e-7
1116 1116 1.9696386544206903e-6
1117 1116 -9.526651554742748e-7
1116 1117 -9.526651554750121e-7
1117 1117 2.0137134831442804e-6
1118 1117 9.718178321657888e-7
1117 1118 9.71817832166098e-7
1118 1118 2.035694317974107e-6
1119 1118 9.562069173676007e-7
1118 1119 9.562069173678004e-7
1119 1119 1.9897699323321222e-6
1120 1119 9.752124963060605e-7
1119 1120 9.752124963062499e-7
1120 1120 1.997170103692445e-6
1121 1120 9.595526394566945e-7
1120 1121 9.595526394558737e-7
1121 1121 1.989775274572464e-6
1122 1121 -9.530746810028623e-7
1121 1122 -9.530746810033253e-7
1122 1122 1.984832144620561e-6
1123 1122 9.508826899893043e-7
1122 1123 9.508826899907625e-7
1123 1123 2.002540060198201e-6
1124 1123 9.64134998302807e-7
1123 1124 9.641349983023595e-7
1124 1124 2.010104318225305e-6
1125 1124 9.661016886175013e-7
1124 1125 9.661016886166683e-7
1125 1125 2.0097810837973603e-6
1126 1125 9.430572315136114e-7
1125 1126 9.430572315145716e-7
1126 1126 1.986514746747025e-6
1127 1126 -9.843614780457214e-7
1126 1127 -9.843614780462415e-7
1127 1127 2.007594546597963e-6
1128 1127 -9.63326081923947e-7
1127 1128 -9.633260819227859e-7
1128 1128 1.998647485089586e-6
1129 1128 -9.51773060922223e-7
1128 1129 -9.517730609240956e-7
1129 1129 1.9694915104691274e-6
1130 1129 9.576519896000946e-7
1129 1130 9.576519896001832e-7
1130 1130 2.0210849644975168e-6
1131 1130 9.517431607877985e-7
1130 1131 9.517431607881091e-7
1131 1131 2.0073719878993772e-6
1132 1131 -9.521144884734654e-7
1131 1132 -9.521144884729363e-7
1132 1132 2.0035310283703087e-6
1133 1132 -9.809422917233884e-7
1132 1133 -9.809422917239552e-7
1133 1133 2.034374304764621e-6
1134 1133 9.647577891735947e-7
1133 1134 9.64757789173298e-7
1134 1134 1.9761938911404395e-6
1135 1134 -9.500235297856476e-7
1134 1135 -9.500235297863355e-7
1135 1135 2.0056158837665017e-6
1136 1135 9.546371916350194e-7
1135 1136 9.546371916349942e-7
1136 1136 1.9714561883043364e-6
1137 1136 9.593908172919864e-7
1136 1137 9.593908172921085e-7
1137 1137 2.0130184917682092e-6
1138 1137 -9.584226408589047e-7
1137 1138 -9.584226408583546e-7
1138 1138 2.0110647320091095e-6
1139 1138 9.58824293998166e-7
1138 1139 9.588242939978221e-7
1139 1139 1.99868234917969e-6
1140 1139 -9.534243447973898e-7
1139 1140 -9.534243447980955e-7
1140 1140 1.9974629443224813e-6
1141 1140 -9.60911929720383e-7
1140 1141 -9.609119297206566e-7
1141 1141 1.986594753009124e-6
1142 1141 9.581708986375711e-7
1141 1142 9.581708986379222e-7
1142 1142 2.013051686118617e-6
1143 1142 9.614195049035727e-7
1142 1143 9.614195049028527e-7
1143 1143 1.981834526821327e-6
1144 1143 9.546039453042948e-7
1143 1144 9.546039453049056e-7
1144 1144 1.9958508636542855e-6
1145 1144 -9.710218306936015e-7
1144 1145 -9.710218306934446e-7
1145 1145 2.022701478976573e-6
1146 1145 9.617885262758201e-7
1145 1146 9.617885262765894e-7
1146 1146 1.988449980170361e-6
1147 1146 -9.676389423468296e-7
1146 1147 -9.67638942346751e-7
1147 1147 1.993635801813974e-6
1148 1147 -9.478407374837243e-7
1147 1148 -9.478407374835873e-7
1148 1148 2.0174528731202992e-6
1149 1148 -9.632956765680965e-7
1148 1149 -9.632956765670557e-7
1149 1149 1.9944996342398826e-6
1150 1149 -9.597339908850617e-7
1149 1150 -9.597339908843682e-7
1150 1150 2.0174802780657594e-6
1151 1150 -9.598898553562788e-7
1150 1151 -9.5988985535659e-7
1151 1151 2.0125191947560825e-6
1152 1151 9.413714028216646e-7
1151 1152 9.413714028221334e-7
1152 1152 2.0044539529757107e-6
1153 1152 -9.51094290144684e-7
1152 1153 -9.510942901446009e-7
1153 1153 2.0207177675595976e-6
1154 1153 9.527418286205953e-7
1153 1154 9.527418286204805e-7
1154 1154 1.9782951772171707e-6
1155 1154 -9.645277879178641e-7
1154 1155 -9.645277879182847e-7
1155 1155 2.0056290536089453e-6
1156 1155 9.509959715569674e-7
1155 1156 9.509959715558609e-7
1156 1156 2.0098823385759817e-6
1157 1156 -9.658319457861182e-7
1156 1157 -9.658319457882066e-7
1157 1157 1.973424943372237e-6
1158 1157 -9.411404165478607e-7
1157 1158 -9.411404165464261e-7
1158 1158 2.0232331206127617e-6
1159 1158 9.569376770393202e-7
1158 1159 9.569376770391898e-7
1159 1159 1.987728429213169e-6
1160 1159 9.623625532306228e-7
1159 1160 9.623625532305762e-7
1160 1160 2.001744785844177e-6
1161 1160 9.448931839357849e-7
1160 1161 9.448931839367581e-7
1161 1161 1.995143493015998e-6
1162 1161 -9.725192493119375e-7
1161 1162 -9.725192493116453e-7
1162 1162 2.000097736044488e-6
1163 1162 9.472206891950426e-7
1162 1163 9.472206891942475e-7
1163 1163 2.0007162434668773e-6
1164 1163 -9.63014584734443e-7
1163 1164 -9.6301458473371e-7
1164 1164 1.983892470794158e-6
1165 1164 -9.68432607454033e-7
1164 1165 -9.684326074537957e-7
1165 1165 1.9877433349864888e-6
1166 1165 -9.528791921069082e-7
1165 1166 -9.528791921059833e-7
1166 1166 1.9866290086849248e-6
1167 1166 -9.71250444730723e-7
1166 1167 -9.712504447315819e-7
1167 1167 2.0215501269174116e-6
1168 1167 -9.439869768461433e-7
1167 1168 -9.439869768457026e-7
1168 1168 1.9784194567927867e-6
1169 1168 -9.489989677530171e-7
1168 1169 -9.489989677532009e-7
1169 1169 2.0245983042841997e-6
1170 1169 -9.451328652848433e-7
1169 1170 -9.45132865286451e-7
1170 1170 1.9773303344061216e-6
1171 1170 9.521518635029031e-7
1170 1171 9.521518635037582e-7
1171 1171 1.9939535681964693e-6
1172 1171 9.557441779574067e-7
1171 1172 9.557441779561446e-7
1172 1172 2.0084132264671277e-6
1173 1172 -9.442660860852856e-7
1172 1173 -9.442660860845521e-7
1173 1173 2.0178038939422094e-6
1174 1173 9.566376427045197e-7
1173 1174 9.566376427060956e-7
1174 1174 1.997604175770988e-6
1175 1174 9.477226635052208e-7
1174 1175 9.477226635042236e-7
1175 1175 2.0061760355077517e-6
1176 1175 -9.559556940557888e-7
1175 1176 -9.559556940551885e-7
1176 1176 1.9797380300726826e-6
1177 1176 9.420962163647388e-7
1176 1177 9.420962163648146e-7
1177 1177 1.984226805000381e-6
1178 1177 -9.471056704216833e-7
1177 1178 -9.471056704228668e-7
1178 1178 1.9973841711180993e-6
1179 1178 9.616043458090768e-7
1178 1179 9.616043458081234e-7
1179 1179 2.007932972033366e-6
1180 1179 -9.658837743050332e-7
1179 1180 -9.65883774304978e-7
1180 1180 1.9925930837979463e-6
1181 1180 -9.564079719896304e-7
1180 1181 -9.564079719897123e-7
1181 1181 1.992226746099323e-6
1182 1181 -9.496454537878815e-7
1181 1182 -9.496454537881277e-7
1182 1182 2.004013935318949e-6
1183 1182 9.512647997149773e-7
1182 1183 9.512647997152686e-7
1183 1183 1.9843744682952724e-6
1184 1183 9.536696635881703e-7
1183 1184 9.536696635884624e-7
1184 1184 1.9850650851898096e-6
1185 1184 -9.446565875212198e-7
1184 1185 -9.446565875203859e-7
1185 1185 2.009533454781145e-6
1186 1185 -9.415140301543283e-7
1185 1186 -9.415140301549024e-7
1186 1186 1.956494617108883e-6
1187 1186 -9.529730845638013e-7
1186 1187 -9.529730845631481e-7
1187 1187 2.0122550171940455e-6
1188 1187 -9.513382200597876e-7
1187 1188 -9.513382200606108e-7
1188 1188 1.9923573994507273e-6
1189 1188 9.482277897727956e-7
1188 1189 9.482277897731361e-7
1189 1189 2.0218593631987022e-6
1190 1189 -9.641462738013754e-7
1189 1190 -9.641462737998425e-7
1190 1190 2.0104539421592626e-6
1191 1190 9.40787975689633e-7
1190 1191 9.407879756889143e-7
1191 1191 2.000959772052576e-6
1192 1191 -9.62597810975484e-7
1191 1192 -9.625978109750916e-7
1192 1192 1.986853933631107e-6
1193 1192 -9.492205565782471e-7
1192 1193 -9.492205565784197e-7
1193 1193 1.961810156353983e-6
1194 1193 9.422447760861284e-7
1193 1194 9.422447760857067e-7
1194 1194 1.9883974872952437e-6
1195 1194 9.639636212210263e-7
1194 1195 9.63963621220964e-7
1195 1195 1.989724869715574e-6
1196 1195 -9.556789631467409e-7
1195 1196 -9.556789631463104e-7
1196 1196 2.006086988607003e-6
1197 1196 -9.47381225522359e-7
1196 1197 -9.473812255215726e-7
1197 1197 1.9677756517159223e-6
1198 1197 9.547584193849576e-7
1197 1198 9.54758419385367e-7
1198 1198 1.9981591432938064e-6
1199 1198 9.639996471012925e-7
1198 1199 9.639996471011926e-7
1199 1199 2.00599979339829e-6
1200 1199 -9.495731598153946e-7
1199 1200 -9.495731598152274e-7
1200 1200 1.985479337097585e-6
1201 1200 -9.532243184847625e-7
1200 1201 -9.532243184854487e-7
1201 1201 1.998604082994329e-6
1202 1201 -9.482346702117475e-7
1201 1202 -9.482346702113887e-7
1202 1202 2.035519619663228e-6
1203 1202 9.631375825757413e-7
1202 1203 9.631375825756121e-7
1203 1203 2.0003583671844823e-6
1204 1203 -9.567099960481923e-7
1203 1204 -9.567099960476898e-7
1204 1204 1.9727312813469367e-6
1205 1204 -9.473097533766164e-7
1204 1205 -9.47309753377372e-7
1205 1205 1.994432779830286e-6
1206 1205 -9.285848774413008e-7
1205 1206 -9.285848774407695e-7
1206 1206 2.013691124094359e-6
1207 1206 9.592068140146594e-7
1206 1207 9.592068140138585e-7
1207 1207 1.998479580078234e-6
1208 1207 9.625105352522156e-7
1207 1208 9.62510535253723e-7
1208 1208 2.006665317580691e-6
1209 1208 -9.407685518002705e-7
1208 1209 -9.407685517992922e-7
1209 1209 1.9862028944412883e-6
1210 1209 -9.563441258029499e-7
1209 1210 -9.563441258031009e-7
1210 1210 2.012084455216991e-6
1211 1210 9.501586624743275e-7
1210 1211 9.501586624744865e-7
1211 1211 2.0073021646077843e-6
1212 1211 9.464646158720494e-7
1211 1212 9.46464615871872e-7
1212 1212 1.99275013607413e-6
1213 1212 -9.602706932813336e-7
1212 1213 -9.60270693281253e-7
1213 1213 2.0007437093111705e-6
1214 1213 -9.54274379075045e-7
1213 1214 -9.542743790752795e-7
1214 1214 2.014069611868637e-6
1215 1214 9.56760592909657e-7
1214 1215 9.567605929094899e-7
1215 1215 1.9891986819818824e-6
1216 1215 9.30399482949883e-7
1215 1216 9.303994829503181e-7
1216 1216 1.994804925310129e-6
1217 1216 9.646277856625502e-7
1216 1217 9.646277856617734e-7
1217 1217 2.0165939575336916e-6
1218 1217 -9.502586923424283e-7
1217 1218 -9.502586923416864e-7
1218 1218 2.0173285418577727e-6
1219 1218 -9.383491721769319e-7
1218 1219 -9.383491721768884e-7
1219 1219 1.9731059915630893e-6
1220 1219 -9.375314004686252e-7
1219 1220 -9.37531400468946e-7
1220 1220 2.011801482502898e-6
1221 1220 9.593544734499723e-7
1220 1221 9.593544734505385e-7
1221 1221 2.003387004036199e-6
1222 1221 -9.503950999773462e-7
1221 1222 -9.503950999786302e-7
1222 1222 2.0099260324812e-6
1223 1222 9.500878002901568e-7
1222 1223 9.500878002909713e-7
1223 1223 2.0110764294410133e-6
1224 1223 9.478673225595591e-7
1223 1224 9.478673225591994e-7
1224 1224 1.996442974275995e-6
1225 1224 9.443868000539473e-7
1224 1225 9.443868000537555e-7
1225 1225 2.0340089747015682e-6
1226 1225 9.450604048516784e-7
1225 1226 9.450604048513708e-7
1226 1226 2.01576542920262e-6
1227 1226 9.703989338374927e-7
1226 1227 9.703989338383764e-7
1227 1227 2.030407120759624e-6
1228 1227 -9.40329246881513e-7
1227 1228 -9.403292468815685e-7
1228 1228 1.984504176160388e-6
1229 1228 -9.653469254461794e-7
1228 1229 -9.65346925445929e-7
1229 1229 2.014022867625135e-6
1230 1229 9.563207387822918e-7
1229 1230 9.56320738783215e-7
1230 1230 1.9758467334188953e-6
1231 1230 -9.65858417163518e-7
1230 1231 -9.658584171630826e-7
1231 1231 2.009577609568267e-6
1232 1231 9.319595865365007e-7
1231 1232 9.31959586536558e-7
1232 1232 2.001881670375532e-6
1233 1232 -9.50050972956404e-7
1232 1233 -9.500509729569377e-7
1233 1233 2.032104378384523e-6
1234 1233 9.591631299966863e-7
1233 1234 9.591631299967588e-7
1234 1234 1.989199997873667e-6
1235 1234 9.348898865430062e-7
1234 1235 9.34889886543139e-7
1235 1235 1.999996636789112e-6
1236 1235 9.666520509658477e-7
1235 1236 9.666520509646785e-7
1236 1236 2.0019162732332978e-6
1237 1236 9.53192927974114e-7
1236 1237 9.531929279749089e-7
1237 1237 2.0062473535186545e-6
1238 1237 -9.377538922677087e-7
1237 1238 -9.3775389226726e-7
1238 1238 2.0133131386678244e-6
1239 1238 -9.590450779207324e-7
1238 1239 -9.590450779207432e-7
1239 1239 1.996634887372951e-6
1240 1239 -9.322761933136228e-7
1239 1240 -9.322761933140895e-7
1240 1240 2.0102384931177346e-6
1241 1240 9.665453350460333e-7
1240 1241 9.665453350444472e-7
1241 1241 1.9991100200652105e-6
1242 1241 -9.589345486992882e-7
1241 1242 -9.589345487007684e-7
1242 1242 2.028556797963029e-6
1243 1242 9.522689299896611e-7
1242 1243 9.522689299889954e-7
1243 1243 2.001845722335534e-6
1244 1243 9.552292542399824e-7
1243 1244 9.552292542402433e-7
1244 1244 1.9704930026139094e-6
1245 1244 -9.531469112953272e-7
1244 1245 -9.531469112957247e-7
1245 1245 1.997343353142351e-6
1246 1245 -9.592930931975487e-7
1245 1246 -9.592930931987547e-7
1246 1246 2.0336302796645343e-6
1247 1246 -9.532592479117467e-7
1246 1247 -9.532592479119719e-7
1247 1247 1.9905177671004204e-6
1248 1247 -9.6930158110065e-7
1247 1248 -9.693015811002664e-7
1248 1248 2.0178665713862684e-6
1249 1248 -9.372815591143108e-7
1248 1249 -9.372815591141504e-7
1249 1249 2.0144127564406264e-6
1250 1249 -9.427785120739925e-7
1249 1250 -9.42778512073172e-7
1250 1250 1.9807681539721848e-6
1251 1250 -9.476832140831123e-7
1250 1251 -9.476832140826709e-7
1251 1251 2.023498017441423e-6
1252 1251 9.596946620435112e-7
1251 1252 9.596946620441815e-7
1252 1252 1.9773136379629027e-6
1253 1252 -9.320729435948466e-7
1252 1253 -9.320729435942465e-7
1253 1253 1.983006994177886e-6
1254 1253 9.864226122910717e-7
1253 1254 9.86422612290783e-7
1254 1254 2.0047546515858997e-6
1255 1254 -9.417627216996088e-7
1254 1255 -9.417627216991571e-7
1255 1255 1.9759118637420347e-6
1256 1255 -9.335878481293914e-7
1255 1256 -9.335878481289196e-7
1256 1256 1.9933096974827986e-6
1257 1256 -9.494905969625456e-7
1256 1257 -9.494905969629585e-7
1257 1257 2.0509445516217748e-6
1258 1257 -9.492376320798283e-7
1257 1258 -9.492376320791771e-7
1258 1258 1.9989637603573963e-6
1259 1258 9.518336173434126e-7
1258 1259 9.518336173444451e-7
1259 1259 2.0110826928135823e-6
1260 1259 -9.5037867694388e-7
1259 1260 -9.503786769432412e-7
1260 1260 2.0103528818976494e-6
1261 1260 -9.415718866403644e-7
1260 1261 -9.415718866407574e-7
1261 1261 1.97294397503271e-6
1262 1261 9.521379798309383e-7
1261 1262 9.521379798313371e-7
1262 1262 2.00734999906761e-6
1263 1262 9.572744402686828e-7
1262 1263 9.572744402692135e-7
1263 1263 2.015732794429322e-6
1264 1263 -9.53998671964697e-7
1263 1264 -9.539986719636838e-7
1264 1264 2.0033088065749667e-6
1265 1264 9.553193517358535e-7
1264 1265 9.553193517358471e-7
1265 1265 2.0149925420244102e-6
1266 1265 9.345288182426251e-7
1265 1266 9.345288182430971e-7
1266 1266 2.002843905190942e-6
1267 1266 9.741732868285789e-7
1266 1267 9.741732868280113e-7
1267 1267 2.013608112749707e-6
1268 1267 -9.433481177859097e-7
1267 1268 -9.433481177861896e-7
1268 1268 1.9809979746017583e-6
1269 1268 -9.496378079859032e-7
1268 1269 -9.496378079869434e-7
1269 1269 2.0141992345108787e-6
1270 1269 9.574792870404175e-7
1269 1270 9.574792870392643e-7
1270 1270 2.0189719449994734e-6
1271 1270 9.227791255930454e-7
1270 1271 9.22779125592627e-7
1271 1271 1.9597820516900067e-6
1272 1271 -9.523631242180618e-7
1271 1272 -9.523631242168812e-7
1272 1272 2.0056968933664834e-6
1273 1272 -9.470390448669833e-7
1272 1273 -9.470390448671008e-7
1273 1273 2.022083354255843e-6
1274 1273 9.54830640094494e-7
1273 1274 9.548306400950222e-7
1274 1274 1.974515851140933e-6
1275 1274 -9.481645187199089e-7
1274 1275 -9.481645187197851e-7
1275 1275 1.9640437728355545e-6
1276 1275 9.482114196099715e-7
1275 1276 9.48211419609533e-7
1276 1276 2.0083778515991813e-6
1277 1276 -9.401100799258119e-7
1276 1277 -9.401100799265055e-7
1277 1277 2.0012320083588765e-6
1278 1277 -9.499678845774648e-7
1277 1278 -9.499678845766737e-7
1278 1278 1.9636988025373726e-6
1279 1278 9.5123921831979e-7
1278 1279 9.512392183194765e-7
1279 1279 1.961769365836556e-6
1280 1279 -9.41905359084253e-7
1279 1280 -9.419053590841081e-7
1280 1280 1.996610013816889e-6
1281 1280 -9.30717360031985e-7
1280 1281 -9.307173600313562e-7
1281 1281 2.0154652344628107e-6
1282 1281 9.669293834987628e-7
1281 1282 9.669293834987116e-7
1282 1282 1.9992035271871757e-6
1283 1282 -9.531159130508336e-7
1282 1283 -9.531159130506787e-7
1283 1283 2.0134834369422245e-6
1284 1283 9.42869947052171e-7
1283 1284 9.42869947051229e-7
1284 1284 2.0026127518923012e-6
1285 1284 -9.438508121826366e-7
1284 1285 -9.438508121822008e-7
1285 1285 1.9931794682851192e-6
1286 1285 9.512008382043101e-7
1285 1286 9.512008382044282e-7
1286 1286 2.0093385458381462e-6
1287 1286 9.278070977533092e-7
1286 1287 9.278070977535117e-7
1287 1287 1.9837078707804135e-6
1288 1287 9.486211263489507e-7
1287 1288 9.486211263478686e-7
1288 1288 2.014973287830936e-6
1289 1288 -9.325555441559231e-7
1288 1289 -9.325555441562904e-7
1289 1289 2.0119968719517514e-6
1290 1289 9.287692916686785e-7
1289 1290 9.287692916690353e-7
1290 1290 1.9868703251184133e-6
1291 1290 -9.601203499829095e-7
1290 1291 -9.60120349984246e-7
1291 1291 1.9920053147758785e-6
1292 1291 9.438251738295787e-7
1291 1292 9.438251738289579e-7
1292 1292 2.010424575407132e-6
1293 1292 -9.512919369186066e-7
1292 1293 -9.512919369177819e-7
1293 1293 1.992783488955579e-6
1294 1293 9.489059137293148e-7
1293 1294 9.489059137300554e-7
1294 1294 1.9948883336955094e-6
1295 1294 -9.588038610318986e-7
1294 1295 -9.588038610323634e-7
1295 1295 2.0300560889513775e-6
1296 1295 -9.44228436796738e-7
1295 1296 -9.442284367966369e-7
1296 1296 1.9662010550626174e-6
1297 1296 -9.444546285445246e-7
1296 1297 -9.444546285450035e-7
1297 1297 2.0271760699047025e-6
1298 1297 -9.479343786818615e-7
1297 1298 -9.479343786800944e-7
1298 1298 2.0041629603349424e-6
1299 1298 -9.494796243481478e-7
1298 1299 -9.494796243487641e-7
1299 1299 1.9839674861320905e-6
1300 1299 -9.484765196214116e-7
1299 1300 -9.484765196222665e-7
1300 1300 2.0057881435544472e-6
1301 1300 -9.286367224229759e-7
1300 1301 -9.286367224230667e-7
1301 1301 1.9799449136353023e-6
1302 1301 -9.368979953485693e-7
1301 1302 -9.368979953508598e-7
1302 1302 1.985646250963447e-6
1303 1302 -9.54060384704993e-7
1302 1303 -9.5406038470683e-7
1303 1303 2.009118745574016e-6
1304 1303 9.461731561150159e-7
1303 1304 9.461731561139139e-7
1304 1304 1.985556388995011e-6
1305 1304 9.431167625480767e-7
1304 1305 9.431167625473444e-7
1305 1305 1.982690700390449e-6
1306 1305 9.552714654070388e-7
1305 1306 9.55271465406141e-7
1306 1306 1.9895850193514267e-6
1307 1306 9.254970396189273e-7
1306 1307 9.254970396172321e-7
1307 1307 2.0016711213655553e-6
1308 1307 9.526524701972784e-7
1307 1308 9.526524701961006e-7
1308 1308 1.964168951555067e-6
1309 1308 -9.453518611787959e-7
1308 1309 -9.453518611776607e-7
1309 1309 1.99923674286779e-6
1310 1309 9.381201271361541e-7
1309 1310 9.38120127136457e-7
1310 1310 1.984129545602772e-6
1311 1310 -9.391509113911407e-7
1310 1311 -9.391509113909715e-7
1311 1311 2.0108310634341823e-6
1312 1311 -9.58950050767019e-7
1311 1312 -9.589500507677828e-7
1312 1312 1.982969735600649e-6
1313 1312 -9.264588471891806e-7
1312 1313 -9.264588471887767e-7
1313 1313 2.010252358996685e-6
1314 1313 9.525819728234916e-7
1313 1314 9.525819728239308e-7
1314 1314 1.956798026177812e-6
1315 1314 -9.363885746183185e-7
1314 1315 -9.363885746192589e-7
1315 1315 1.9712898528049482e-6
1316 1315 9.458107482973229e-7
1315 1316 9.458107482967561e-7
1316 1316 1.9986000506752117e-6
1317 1316 9.297852706879258e-7
1316 1317 9.297852706886684e-7
1317 1317 2.021942602124844e-6
1318 1317 -9.447054726340136e-7
1317 1318 -9.447054726333782e-7
1318 1318 2.014605830011852e-6
1319 1318 9.64892455907357e-7
1318 1319 9.648924559083201e-7
1319 1319 2.00444775610243e-6
1320 1319 -9.395481713572414e-7
1319 1320 -9.395481713562514e-7
1320 1320 2.019817077926773e-6
1321 1320 9.478519086097198e-7
1320 1321 9.478519086096744e-7
1321 1321 1.9933701335915994e-6
1322 1321 9.488017362510816e-7
1321 1322 9.488017362500575e-7
1322 1322 2.0261843024187966e-6
1323 1322 9.446969595173032e-7
1322 1323 9.44696959517572e-7
1323 1323 1.9829795318698853e-6
1324 1323 9.379845256670158e-7
1323 1324 9.379845256670274e-7
1324 1324 2.0203158928656397e-6
1325 1324 9.468191493993732e-7
1324 1325 9.468191493998185e-7
1325 1325 2.0000594721470005e-6
1326 1325 -9.322893123992392e-7
1325 1326 -9.322893123979818e-7
1326 1326 1.9943191188861364e-6
1327 1326 9.423623640092669e-7
1326 1327 9.423623640095657e-7
1327 1327 1.9733235901720866e-6
1328 1327 9.517862013492033e-7
1327 1328 9.517862013484839e-7
1328 1328 2.007673683496506e-6
1329 1328 9.330005104076896e-7
1328 1329 9.330005104082003e-7
1329 1329 1.9718308723852455e-6
1330 1329 9.41461938574205e-7
1329 1330 9.414619385737436e-7
1330 1330 2.024860987529002e-6
1331 1330 -9.547849133529554e-7
1330 1331 -9.547849133545434e-7
1331 1331 1.9612561693711896e-6
1332 1331 -9.241219122518901e-7
1331 1332 -9.241219122498015e-7
1332 1332 2.026862414898881e-6
1333 1332 -9.461191330405973e-7
1332 1333 -9.461191330410887e-7
1333 1333 1.9976443995002644e-6
1334 1333 9.361531202487506e-7
1333 1334 9.361531202484183e-7
1334 1334 1.9890189577532312e-6
1335 1334 -9.669869767387898e-7
1334 1335 -9.669869767383957e-7
1335 1335 1.9685094562274735e-6
1336 1335 9.447750547423194e-7
1335 1336 9.447750547430036e-7
1336 1336 1.98777256571235e-6
1337 1336 9.412815376059921e-7
1336 1337 9.412815376046079e-7
1337 1337 1.9907694363218104e-6
1338 1337 9.354572775005535e-7
1337 1338 9.354572775015602e-7
1338 1338 2.0299160923667544e-6
1339 1338 9.38482102989852e-7
1338 1339 9.38482102988692e-7
1339 1339 2.007229572537037e-6
1340 1339 9.479056116688754e-7
1339 1340 9.479056116692205e-7
1340 1340 2.0223367299800673e-6
1341 1340 -9.526390827008671e-7
1340 1341 -9.526390827009976e-7
1341 1341 1.992264910678147e-6
1342 1341 -9.545314096708715e-7
1341 1342 -9.545314096702117e-7
1342 1342 2.000031915671185e-6
1343 1342 9.428797164057055e-7
1342 1343 9.428797164062459e-7
1343 1343 2.0580838906869234e-6
1344 1343 -9.327712069948882e-7
1343 1344 -9.327712069953628e-7
1344 1344 1.987101421987226e-6
1345 1344 -9.417305226974031e-7
1344 1345 -9.417305226980494e-7
1345 1345 2.0086553346121057e-6
1346 1345 -9.258765029923584e-7
1345 1346 -9.258765029925284e-7
1346 1346 1.985752681321832e-6
1347 1346 9.59160991579129e-7
1346 1347 9.591609915794812e-7
1347 1347 2.031035395680619e-6
1348 1347 -9.312743185884706e-7
1347 1348 -9.312743185883034e-7
1348 1348 2.0157674040863132e-6
1349 1348 -9.422976208854103e-7
1348 1349 -9.422976208857528e-7
1349 1349 2.0265166990925596e-6
1350 1349 9.403787418451517e-7
1349 1350 9.403787418445653e-7
1350 1350 1.9678173164935163e-6
1351 1350 9.553810166692894e-7
1350 1351 9.553810166693711e-7
1351 1351 2.015188112187312e-6
1352 1351 9.536847552434232e-7
1351 1352 9.536847552428138e-7
1352 1352 1.9964098245661353e-6
1353 1352 9.31816392286427e-7
1352 1353 9.318163922873106e-7
1353 1353 1.9635896735053715e-6
1354 1353 -9.33601622440382e-7
1353 1354 -9.336016224396108e-7
1354 1354 1.9989527823962254e-6
1355 1354 9.345365939057361e-7
1354 1355 9.345365939051983e-7
1355 1355 1.9844037299655005e-6
1356 1355 -9.543877954515168e-7
1355 1356 -9.54387795451442e-7
1356 1356 2.000928705586301e-6
1357 1356 -9.406129625353521e-7
1356 1357 -9.406129625354207e-7
1357 1357 1.9913443208371537e-6
1358 1357 9.340248115103585e-7
1357 1358 9.340248115105636e-7
1358 1358 2.0050271680850414e-6
1359 1358 -9.334938893208571e-7
1358 1359 -9.334938893210043e-7
1359 1359 1.9989178613238757e-6
1360 1359 9.488196692779515e-7
1359 1360 9.488196692777334e-7
1360 1360 2.024937747550946e-6
1361 1360 -9.343720331338589e-7
1360 1361 -9.343720331349447e-7
1361 1361 1.96939722463242e-6
1362 1361 9.398016694995935e-7
1361 1362 9.398016694996172e-7
1362 1362 1.9930496169856586e-6
1363 1362 -9.430509723349541e-7
1362 1363 -9.43050972335052e-7
1363 1363 2.002021072388468e-6
1364 1363 9.402296560091383e-7
1363 1364 9.402296560090061e-7
1364 1364 1.974897853279174e-6
1365 1364 9.473918210713976e-7
1364 1365 9.473918210713897e-7
1365 1365 2.0226299747968365e-6
1366 1365 -9.323613496878857e-7
1365 1366 -9.323613496886765e-7
1366 1366 1.9958130623642476e-6
1367 1366 9.363527341125175e-7
1366 1367 9.363527341144888e-7
1367 1367 1.9801271477105804e-6
1368 1367 9.303061813877026e-7
1367 1368 9.303061813877858e-7
1368 1368 2.024048015509518e-6
1369 1368 -9.190051507399667e-7
1368 1369 -9.190051507400492e-7
1369 1369 2.03388606282148e-6
1370 1369 9.521474878380893e-7
1369 1370 9.521474878374652e-7
1370 1370 2.005847898975906e-6
1371 1370 -9.343985091986719e-7
1370 1371 -9.343985092003146e-7
1371 1371 1.9834275904042933e-6
1372 1371 9.325546326306242e-7
1371 1372 9.325546326307408e-7
1372 1372 2.001231215162599e-6
1373 1372 -9.552384887977835e-7
1372 1373 -9.552384887980503e-7
1373 1373 1.991132437033688e-6
1374 1373 9.310271060221878e-7
1373 1374 9.310271060221568e-7
1374 1374 2.0087006971326693e-6
1375 1374 9.445711939961936e-7
1374 1375 9.445711939960188e-7
1375 1375 2.01032975729099e-6
1376 1375 -9.423235887801214e-7
1375 1376 -9.423235887790351e-7
1376 1376 1.9927239573409807e-6
1377 1376 9.414455966384512e-7
1376 1377 9.414455966381007e-7
1377 1377 1.975906995003087e-6
1378 1377 -9.358174799590664e-7
1377 1378 -9.358174799589838e-7
1378 1378 2.0104841315091924e-6
1379 1378 9.28035386518057e-7
1378 1379 9.280353865192449e-7
1379 1379 2.0393351247421343e-6
1380 1379 9.412748722926504e-7
1379 1380 9.412748722927128e-7
1380 1380 2.0028644759442684e-6
1381 1380 9.497257346221804e-7
1380 1381 9.497257346213614e-7
1381 1381 2.0165842258064213e-6
1382 1381 9.312111200635679e-7
1381 1382 9.31211120065068e-7
1382 1382 1.976635665766316e-6
1383 1382 9.455391048425882e-7
1382 1383 9.455391048420552e-7
1383 1383 1.9964509359254282e-6
1384 1383 9.450220746900274e-7
1383 1384 9.450220746902394e-7
1384 1384 2.0125644268784913e-6
1385 1384 9.374375896597414e-7
1384 1385 9.374375896597742e-7
1385 1385 2.01447595610099e-6
1386 1385 9.36277234556836e-7
1385 1386 9.362772345567421e-7
1386 1386 1.9777374475903986e-6
1387 1386 -9.478568226368099e-7
1386 1387 -9.478568226365867e-7
1387 1387 2.0065321214748786e-6
1388 1387 9.301956999727554e-7
1387 1388 9.301956999736673e-7
1388 1388 1.9980999297855663e-6
1389 1388 -9.488553231667849e-7
1388 1389 -9.488553231660844e-7
1389 1389 1.9826002963790617e-6
1390 1389 -9.196671396624277e-7
1389 1390 -9.196671396610704e-7
1390 1390 2.0179574548617904e-6
1391 1390 9.392842407267454e-7
1390 1391 9.392842407266087e-7
1391 1391 2.0170551650476562e-6
1392 1391 -9.420511040951584e-7
1391 1392 -9.420511040944945e-7
1392 1392 1.988686713075444e-6
1393 1392 9.352641247952482e-7
1392 1393 9.352641247966186e-7
1393 1393 1.9731571469586962e-6
1394 1393 -9.315200363386877e-7
1393 1394 -9.315200363380457e-7
1394 1394 2.0337289905973023e-6
1395 1394 -9.400202275164903e-7
1394 1395 -9.400202275162728e-7
1395 1395 2.002757991979271e-6
1396 1395 9.307721728586071e-7
1395 1396 9.307721728590285e-7
1396 1396 2.009153395914747e-6
1397 1396 9.491150704481827e-7
1396 1397 9.491150704483008e-7
1397 1397 1.9837263490114683e-6
1398 1397 -9.391319501529262e-7
1397 1398 -9.391319501528728e-7
1398 1398 1.9904520960494033e-6
1399 1398 -9.367051335429274e-7
1398 1399 -9.367051335431424e-7
1399 1399 2.013354192793118e-6
1400 1399 9.505719051710099e-7
1399 1400 9.505719051718371e-7
1400 1400 2.017405902829144e-6
1401 1400 9.485428973138464e-7
1400 1401 9.485428973133784e-7
1401 1401 2.012245598060689e-6
1402 1401 -9.33099061122034e-7
1401 1402 -9.330990611226848e-7
1402 1402 2.0131142350367167e-6
1403 1402 -9.518225750351654e-7
1402 1403 -9.518225750358065e-7
1403 1403 2.0041933677061404e-6
1404 1403 -9.303833375996664e-7
1403 1404 -9.303833376008277e-7
1404 1404 2.0027406200557617e-6
1405 1404 -9.318457802599816e-7
1404 1405 -9.318457802603447e-7
1405 1405 1.9976424023281e-6
1406 1405 -9.478332423417184e-7
1405 1406 -9.47833242340964e-7
1406 1406 1.9803922943491507e-6
1407 1406 9.306850975136673e-7
1406 1407 9.306850975133833e-7
1407 1407 2.006938855970707e-6
1408 1407 9.360593753548459e-7
1407 1408 9.360593753561974e-7
1408 1408 1.9599413779353397e-6
1409 1408 9.208001541423766e-7
1408 1409 9.208001541419217e-7
1409 1409 2.021004627314279e-6
1410 1409 -9.307475994226049e-7
1409 1410 -9.307475994232082e-7
1410 1410 1.994425785708841e-6
1411 1410 9.336834960474904e-7
1410 1411 9.336834960474157e-7
1411 1411 1.9714009235385744e-6
1412 1411 9.41028727699992e-7
1411 1412 9.41028727700092e-7
1412 1412 1.992476198039919e-6
1413 1412 9.231899468587298e-7
1412 1413 9.231899468595897e-7
1413 1413 2.0030031496775218e-6
1414 1413 9.382887165471015e-7
1413 1414 9.382887165472549e-7
1414 1414 2.0234192513561973e-6
1415 1414 9.533321617329057e-7
1414 1415 9.53332161733515e-7
1415 1415 2.00018320701685e-6
1416 1415 -9.282889577867027e-7
1415 1416 -9.282889577866357e-7
1416 1416 2.0065535260820976e-6
1417 1416 -9.408626881555125e-7
1416 1417 -9.408626881554068e-7
1417 1417 1.997576873609821e-6
1418 1417 9.206425720538356e-7
1417 1418 9.206425720543027e-7
1418 1418 2.0171825172470036e-6
1419 1418 9.50686399196105e-7
1418 1419 9.50686399196099e-7
1419 1419 1.971407050792757e-6
1420 1419 9.217113615020947e-7
1419 1420 9.217113615026828e-7
1420 1420 1.9737165026057838e-6
1421 1420 -9.357101697611056e-7
1420 1421 -9.357101697616726e-7
1421 1421 2.0176717768064053e-6
1422 1421 -9.304875037806168e-7
1421 1422 -9.304875037812824e-7
1422 1422 1.9778598649884204e-6
1423 1422 -9.304998044462292e-7
1422 1423 -9.304998044462438e-7
1423 1423 1.9984460602390196e-6
1424 1423 -9.379596844550521e-7
1423 1424 -9.37959684455416e-7
1424 1424 2.0553772348744866e-6
1425 1424 9.26131167097461e-7
1424 1425 9.261311670968468e-7
1425 1425 1.9516020937676884e-6
1426 1425 -9.235145697171029e-7
1425 1426 -9.235145697169689e-7
1426 1426 1.9924070242696337e-6
1427 1426 9.366425203311909e-7
1426 1427 9.366425203311476e-7
1427 1427 2.0164536956883468e-6
1428 1427 -9.274100051523941e-7
1427 1428 -9.274100051526997e-7
1428 1428 2.0001423717614273e-6
1429 1428 -9.380200882440287e-7
1428 1429 -9.380200882442384e-7
1429 1429 1.995068311538168e-6
1430 1429 9.395521575082965e-7
1429 1430 9.395521575072932e-7
1430 1430 2.011538862337111e-6
1431 1430 9.275115238883972e-7
1430 1431 9.275115238887702e-7
1431 1431 2.014216301853065e-6
1432 1431 -9.266504495489288e-7
1431 1432 -9.266504495487452e-7
1432 1432 1.9909175976384973e-6
1433 1432 -9.328501067232589e-7
1432 1433 -9.328501067223117e-7
1433 1433 2.0045786078186974e-6
1434 1433 -9.297827402688121e-7
1433 1434 -9.297827402688904e-7
1434 1434 1.9688957385632963e-6
1435 1434 9.39287405465681e-7
1434 1435 9.392874054650746e-7
1435 1435 2.0212764170071874e-6
1436 1435 9.237242817961016e-7
1435 1436 9.237242817974628e-7
1436 1436 2.003861738407945e-6
1437 1436 -9.394233683782927e-7
1436 1437 -9.394233683780784e-7
1437 1437 1.976347718242692e-6
1438 1437 -9.233448994921458e-7
1437 1438 -9.233448994933062e-7
1438 1438 1.994969266789879e-6
1439 1438 -9.2786563928412e-7
1438 1439 -9.278656392836239e-7
1439 1439 2.0205757889548294e-6
1440 1439 9.372851156492969e-7
1439 1440 9.372851156482823e-7
1440 1440 1.986887071529783e-6
1441 1440 -9.228657194374858e-7
1440 1441 -9.228657194384092e-7
1441 1441 1.9548698233073006e-6
1442 1441 -9.380181331592311e-7
1441 1442 -9.380181331595858e-7
1442 1442 2.0227225990215583e-6
1443 1442 9.329476817457801e-7
1442 1443 9.329476817467261e-7
1443 1443 2.005885114206737e-6
1444 1443 -9.364682281551132e-7
1443 1444 -9.364682281544611e-7
1444 1444 2.0045819978431117e-6
1445 1444 9.259645375199681e-7
1444 1445 9.259645375203334e-7
1445 1445 1.9835324006338203e-6
1446 1445 9.227290502169999e-7
1445 1446 9.227290502170662e-7
1446 1446 1.984697369115532e-6
1447 1446 9.322568230823601e-7
1446 1447 9.322568230832029e-7
1447 1447 2.02350093604486e-6
1448 1447 -9.469802014016439e-7
1447 1448 -9.469802014021458e-7
1448 1448 1.9850854795636778e-6
1449 1448 9.249843929592136e-7
1448 1449 9.249843929591628e-7
1449 1449 2.0052650319067263e-6
1450 1449 9.263670108979625e-7
1449 1450 9.263670108970007e-7
1450 1450 1.9893815450601777e-6
1451 1450 9.413711927063533e-7
1450 1451 9.413711927062238e-7
1451 1451 1.9904988011535616e-6
1452 1451 -9.19721908766981e-7
1451 1452 -9.197219087681695e-7
1452 1452 2.027416385541272e-6
1453 1452 -9.289831991484645e-7
1452 1453 -9.289831991486706e-7
1453 1453 2.0121774038113947e-6
1454 1453 9.435593250297065e-7
1453 1454 9.435593250294905e-7
1454 1454 2.0103273812056534e-6
1455 1454 -9.364907499991171e-7
1454 1455 -9.364907499988403e-7
1455 1455 1.948628421076762e-6
1456 1455 9.314569801486737e-7
1455 1456 9.314569801488423e-7
1456 1456 2.0445348471634447e-6
1457 1456 9.375440729032432e-7
1456 1457 9.375440729029315e-7
1457 1457 1.9778359309034666e-6
1458 1457 -9.357458225898694e-7
1457 1458 -9.357458225903241e-7
1458 1458 2.021590034235176e-6
1459 1458 9.300320555881081e-7
1458 1459 9.300320555884002e-7
1459 1459 1.9952085223464002e-6
1460 1459 -9.39700324138334e-7
1459 1460 -9.397003241368717e-7
1460 1460 2.015853215625178e-6
1461 1460 -9.275609103878463e-7
1460 1461 -9.275609103872663e-7
1461 1461 1.9807651357773645e-6
1462 1461 -9.302070021153571e-7
1461 1462 -9.302070021157072e-7
1462 1462 1.9984476264463287e-6
1463 1462 9.307647508552455e-7
1462 1463 9.307647508552858e-7
1463 1463 2.0127177640989054e-6
1464 1463 -9.49760394107854e-7
1463 1464 -9.497603941069965e-7
1464 1464 2.004174032477479e-6
1465 1464 -9.332925897966187e-7
1464 1465 -9.332925897969486e-7
1465 1465 1.995177823242499e-6
1466 1465 9.453811891244266e-7
1465 1466 9.453811891243778e-7
1466 1466 1.999162790027292e-6
1467 1466 -9.346079483412005e-7
1466 1467 -9.346079483399182e-7
1467 1467 2.0109937248206347e-6
1468 1467 9.376479834806688e-7
1467 1468 9.376479834808347e-7
1468 1468 1.969430014112328e-6
1469 1468 -9.271634542860017e-7
1468 1469 -9.271634542865401e-7
1469 1469 2.0133530894555043e-6
1470 1469 9.47631522472886e-7
1469 1470 9.476315224725443e-7
1470 1470 2.0199232420058633e-6
1471 1470 -9.292311168179513e-7
1470 1471 -9.292311168186133e-7
1471 1471 1.9993577942234438e-6
1472 1471 -9.458496490369635e-7
1471 1472 -9.458496490355914e-7
1472 1472 2.0006510711676683e-6
1473 1472 9.291588911836609e-7
1472 1473 9.291588911846522e-7
1473 1473 2.005988265728343e-6
1474 1473 9.265070768352432e-7
1473 1474 9.265070768342185e-7
1474 1474 1.997934297527778e-6
1475 1474 -9.164854135800592e-7
1474 1475 -9.164854135797501e-7
1475 1475 1.9946413948319163e-6
1476 1475 9.361856591603926e-7
1475 1476 9.361856591615208e-7
1476 1476 2.017748144775038e-6
1477 1476 9.360747796219818e-7
1476 1477 9.360747796223543e-7
1477 1477 2.0128305769914817e-6
1478 1477 9.199951470136953e-7
1477 1478 9.199951470130375e-7
1478 1478 1.992214961837824e-6
1479 1478 9.470897521312498e-7
1478 1479 9.470897521298264e-7
1479 1479 1.98606758817807e-6
1480 1479 9.353359784600066e-7
1479 1480 9.353359784607933e-7
1480 1480 2.0497032019250346e-6
1481 1480 -9.19750186183643e-7
1480 1481 -9.197501861837502e-7
1481 1481 2.003075837916261e-6
1482 1481 -9.285808952481288e-7
1481 1482 -9.285808952484671e-7
1482 1482 1.996895103699753e-6
1483 1482 9.336819292668864e-7
1482 1483 9.33681929268123e-7
1483 1483 1.984742095729529e-6
1484 1483 9.235647934632635e-7
1483 1484 9.235647934641508e-7
1484 1484 2.0313746905014634e-6
1485 1484 -9.265469138555768e-7
1484 1485 -9.265469138540509e-7
1485 1485 1.9904581911186938e-6
1486 1485 9.201748676546816e-7
1485 1486 9.201748676550579e-7
1486 1486 1.999423479926899e-6
1487 1486 -9.45409020846677e-7
1486 1487 -9.454090208451706e-7
1487 1487 1.9933354909100046e-6
1488 1487 -9.146413725339825e-7
1487 1488 -9.146413725338048e-7
1488 1488 2.0074365352630555e-6
1489 1488 9.386754463773364e-7
1488 1489 9.38675446376309e-7
1489 1489 1.984663181618292e-6
1490 1489 9.387316492651641e-7
1489 1490 9.387316492657783e-7
1490 1490 2.015050564304128e-6
1491 1490 9.227284742161272e-7
1490 1491 9.227284742162266e-7
1491 1491 2.0217300057499087e-6
1492 1491 -9.198710669693037e-7
1491 1492 -9.198710669701853e-7
1492 1492 2.00330616248242e-6
1493 1492 -9.248470801215271e-7
1492 1493 -9.248470801210121e-7
1493 1493 1.9481888764113655e-6
1494 1493 9.22372338359047e-7
1493 1494 9.223723383590147e-7
1494 1494 2.0632488688824917e-6
1495 1494 -9.351987484505734e-7
1494 1495 -9.351987484504109e-7
1495 1495 1.992994588681181e-6
1496 1495 -9.33414898600484e-7
1495 1496 -9.334148986002377e-7
1496 1496 1.987611684296422e-6
1497 1496 -9.340204415142982e-7
1496 1497 -9.340204415143024e-7
1497 1497 2.010516295762635e-6
1498 1497 9.177743765762344e-7
1497 1498 9.177743765768804e-7
1498 1498 1.9942706977234144e-6
1499 1498 -9.222190173737128e-7
1498 1499 -9.222190173735615e-7
1499 1499 1.9907592653203343e-6
1500 1499 9.261519338002279e-7
1499 1500 9.261519338006997e-7
1500 1500 1.9948216998620767e-6
1501 1500 -9.348877530507768e-7
1500 1501 -9.348877530510115e-7
1501 1501 1.9838911004343954e-6
1502 1501 -9.198280085243609e-7
1501 1502 -9.198280085240066e-7
1502 1502 2.036240649618782e-6
1503 1502 9.311757975994772e-7
1502 1503 9.311757975997394e-7
1503 1503 1.9729466813662935e-6
1504 1503 9.290282867954235e-7
1503 1504 9.290282867960582e-7
1504 1504 2.0076061610331875e-6
1505 1504 9.312686413617041e-7
1504 1505 9.312686413625756e-7
1505 1505 1.967846029011349e-6
1506 1505 -9.261536895424394e-7
1505 1506 -9.261536895411514e-7
1506 1506 2.0275954933367955e-6
1507 1506 9.396444440432507e-7
1506 1507 9.396444440423328e-7
1507 1507 1.974860835869155e-6
1508 1507 -9.100688040848571e-7
1507 1508 -9.100688040851346e-7
1508 1508 2.0417244325170344e-6
1509 1508 -9.264848216673352e-7
1508 1509 -9.264848216674239e-7
1509 1509 2.0041772583392817e-6
1510 1509 -9.318763571452251e-7
1509 1510 -9.318763571445872e-7
1510 1510 1.991457999647692e-6
1511 1510 9.19707660604505e-7
1510 1511 9.19707660603897e-7
1511 1511 2.015337978572693e-6
1512 1511 -9.209302594642643e-7
1511 1512 -9.209302594627898e-7
1512 1512 1.9895105871073603e-6
1513 1512 -9.178112745866934e-7
1512 1513 -9.178112745874671e-7
1513 1513 1.9864182238694457e-6
1514 1513 -9.291819243205081e-7
1513 1514 -9.291819243204903e-7
1514 1514 2.0033701651069767e-6
1515 1514 -9.282604490414624e-7
1514 1515 -9.28260449040207e-7
1515 1515 1.9965696340317297e-6
1516 1515 9.253770595885483e-7
1515 1516 9.253770595882152e-7
1516 1516 1.9981579925083107e-6
1517 1516 -9.075453446527723e-7
1516 1517 -9.075453446527489e-7
1517 1517 1.983860324468689e-6
1518 1517 9.280395649339532e-7
1517 1518 9.280395649341566e-7
1518 1518 2.011267702752122e-6
1519 1518 9.23115338633894e-7
1518 1519 9.231153386335803e-7
1519 1519 2.000267417813286e-6
1520 1519 9.447628339467962e-7
1519 1520 9.447628339466575e-7
1520 1520 1.996989636539061e-6
1521 1520 -9.235284064561527e-7
1520 1521 -9.235284064557956e-7
1521 1521 2.0079668583572886e-6
1522 1521 9.191367648571198e-7
1521 1522 9.19136764856741e-7
1522 1522 1.9818150513794677e-6
1523 1522 -9.271962702679113e-7
1522 1523 -9.271962702683441e-7
1523 1523 2.0075437470361126e-6
1524 1523 9.245739345231356e-7
1523 1524 9.245739345239916e-7
1524 1524 2.0091449667939335e-6
1525 1524 -9.231736622194156e-7
1524 1525 -9.231736622196698e-7
1525 1525 1.9688851118413064e-6
1526 1525 -9.154140389037622e-7
1525 1526 -9.154140389031917e-7
1526 1526 1.972448497548483e-6
1527 1526 -9.364693551479587e-7
1526 1527 -9.364693551465972e-7
1527 1527 2.0464104596262233e-6
1528 1527 9.029422217888779e-7
1527 1528 9.029422217890579e-7
1528 1528 2.0289703088572035e-6
1529 1528 9.287815591326666e-7
1528 1529 9.287815591324332e-7
1529 1529 1.9364693812301886e-6
1530 1529 9.257537590346697e-7
1529 1530 9.25753759034924e-7
1530 1530 2.006379656013226e-6
1531 1530 -9.230028868849346e-7
1530 1531 -9.230028868846947e-7
1531 1531 2.007078288480931e-6
1532 1531 9.316167829273185e-7
1531 1532 9.316167829274454e-7
1532 1532 2.0121358256476583e-6
1533 1532 9.284251951564355e-7
1532 1533 9.284251951546426e-7
1533 1533 1.955888736810677e-6
1534 1533 8.989551475096811e-7
1533 1534 8.989551475102246e-7
1534 1534 2.0250922300318987e-6
1535 1534 9.238391924807703e-7
1534 1535 9.238391924803987e-7
1535 1535 1.9943761420538103e-6
1536 1535 9.190854531621678e-7
1535 1536 9.190854531634954e-7
1536 1536 1.987784601824637e-6
1537 1536 9.378947535767896e-7
1536 1537 9.378947535765358e-7
1537 1537 2.002736099011133e-6
1538 1537 9.119319403640623e-7
1537 1538 9.119319403643793e-7
1538 1538 1.9964230023477653e-6
1539 1538 -9.297660189017712e-7
1538 1539 -9.297660189009031e-7
1539 1539 2.026707063827941e-6
1540 1539 9.117929881174924e-7
1539 1540 9.11792988117315e-7
1540 1540 1.992988093963156e-6
1541 1540 -9.271663682633258e-7
1540 1541 -9.27166368263482e-7
1541 1541 2.0052623363639665e-6
1542 1541 -9.282999636213032e-7
1541 1542 -9.282999636214007e-7
1542 1542 2.0122672311684715e-6
1543 1542 -9.258496333604288e-7
1542 1543 -9.258496333607702e-7
1543 1543 2.005373600209327e-6
1544 1543 9.319027416831392e-7
1543 1544 9.319027416835908e-7
1544 1544 2.0090465928980038e-6
1545 1544 -9.108799771090895e-7
1544 1545 -9.10879977110089e-7
1545 1545 1.959545115429703e-6
1546 1545 -9.237745800730159e-7
1545 1546 -9.237745800724845e-7
1546 1546 2.0141142377016713e-6
1547 1546 -9.320994560006125e-7
1546 1547 -9.320994560012608e-7
1547 1547 1.9921695484837704e-6
1548 1547 9.093458969890549e-7
1547 1548 9.093458969900984e-7
1548 1548 1.989045876723929e-6
1549 1548 -9.284193035892757e-7
1548 1549 -9.28419303589424e-7
1549 1549 2.0120049065880524e-6
1550 1549 9.235568278628951e-7
1549 1550 9.235568278635583e-7
1550 1550 2.0260657974280844e-6
1551 1550 -9.11674967502037e-7
1550 1551 -9.116749675024748e-7
1551 1551 1.994578625825236e-6
1552 1551 -9.009498405534154e-7
1551 1552 -9.00949840553747e-7
1552 1552 2.012869618735061e-6
1553 1552 -9.190997982182172e-7
1552 1553 -9.190997982184553e-7
1553 1553 1.9996806417877217e-6
1554 1553 9.220353100268065e-7
1553 1554 9.220353100268023e-7
1554 1554 2.021342358427357e-6
1555 1554 9.162225538386424e-7
1554 1555 9.16222553839499e-7
1555 1555 2.0088542814133254e-6
1556 1555 9.208802536347399e-7
1555 1556 9.208802536349284e-7
1556 1556 1.99655620845163e-6
1557 1556 9.338659064817972e-7
1556 1557 9.338659064819887e-7
1557 1557 1.9965048565851694e-6
1558 1557 9.12600785995074e-7
1557 1558 9.126007859959714e-7
1558 1558 1.993747379882977e-6
1559 1558 9.214194389660691e-7
1558 1559 9.214194389657956e-7
1559 1559 1.989977109703493e-6
1560 1559 9.208694697829322e-7
1559 1560 9.208694697834926e-7
1560 1560 1.9961043132072763e-6
1561 1560 -9.226751546742297e-7
1560 1561 -9.226751546754091e-7
1561 1561 1.981127617467601e-6
1562 1561 -9.075372047095126e-7
1561 1562 -9.075372047089367e-7
1562 1562 2.0357220810495758e-6
1563 1562 9.284195103866224e-7
1562 1563 9.284195103872529e-7
1563 1563 1.978977321819219e-6
1564 1563 9.098274613366476e-7
1563 1564 9.09827461335681e-7
1564 1564 2.0050227087490347e-6
1565 1564 -9.213991633415891e-7
1564 1565 -9.213991633413646e-7
1565 1565 1.982023073570422e-6
1566 1565 -9.344756248605176e-7
1565 1566 -9.344756248613621e-7
1566 1566 2.015587303706135e-6
1567 1566 -9.092052363781611e-7
1566 1567 -9.092052363775283e-7
1567 1567 1.9822317203337713e-6
1568 1567 -9.440545119938239e-7
1567 1568 -9.440545119939178e-7
1568 1568 2.006208139566955e-6
1569 1568 9.130409853122973e-7
1568 1569 9.130409853127594e-7
1569 1569 1.962170638269902e-6
1570 1569 -9.266305394332292e-7
1569 1570 -9.266305394328631e-7
1570 1570 2.0292874008227293e-6
1571 1570 -9.176909513794987e-7
1570 1571 -9.176909513801747e-7
1571 1571 1.9890238212109966e-6
1572 1571 9.13826098599881e-7
1571 1572 9.138260985996441e-7
1572 1572 2.0222513287262928e-6
1573 1572 9.117116985825619e-7
1572 1573 9.117116985827347e-7
1573 1573 2.008350696247493e-6
1574 1573 9.300220734143205e-7
1573 1574 9.300220734144221e-7
1574 1574 2.009287309308493e-6
1575 1574 9.201623109850338e-7
1574 1575 9.20162310985376e-7
1575 1575 1.987904646360816e-6
1576 1575 -9.29954201802888e-7
1575 1576 -9.299542018016745e-7
1576 1576 2.017624174069507e-6
1577 1576 9.127460493666472e-7
1576 1577 9.127460493671876e-7
1577 1577 1.9892969796910403e-6
1578 1577 -9.16928762334046e-7
1577 1578 -9.169287623340936e-7
1578 1578 1.995148019018068e-6
1579 1578 9.187264042906089e-7
1578 1579 9.187264042910466e-7
1579 1579 1.994609094781024e-6
1580 1579 -9.264082650354057e-7
1579 1580 -9.264082650356361e-7
1580 1580 1.9916992549296144e-6
1581 1580 9.152760444135511e-7
1580 1581 9.15276044413705e-7
1581 1581 2.007914809267808e-6
1582 1581 9.260257097617421e-7
1581 1582 9.260257097626739e-7
1582 1582 1.9739949385818648e-6
1583 1582 9.192229808380741e-7
1582 1583 9.192229808376603e-7
1583 1583 2.020423053617522e-6
1584 1583 -9.221316720862487e-7
1583 1584 -9.22131672087196e-7
1584 1584 2.0003161350785732e-6
1585 1584 -9.125594466010056e-7
1584 1585 -9.125594466014593e-7
1585 1585 1.976299359275282e-6
1586 1585 -9.224680013730362e-7
1585 1586 -9.224680013716903e-7
1586 1586 2.0320782513043343e-6
1587 1586 9.083430089620575e-7
1586 1587 9.083430089625362e-7
1587 1587 1.9787433497740198e-6
1588 1587 9.143852973859e-7
1587 1588 9.143852973858415e-7
1588 1588 1.9899563241230607e-6
1589 1588 9.16236588539472e-7
1588 1589 9.162365885392487e-7
1589 1589 2.036368828532001e-6
1590 1589 9.165525944334764e-7
1589 1590 9.165525944332584e-7
1590 1590 1.9754437987056793e-6
1591 1590 -9.15303856631078e-7
1590 1591 -9.153038566305162e-7
1591 1591 1.9902814020457096e-6
1592 1591 9.074888876156097e-7
1591 1592 9.074888876167258e-7
1592 1592 1.98028144662728e-6
1593 1592 -9.110878252515975e-7
1592 1593 -9.110878252525355e-7
1593 1593 1.984522865086356e-6
1594 1593 -9.008905156830779e-7
1593 1594 -9.008905156834043e-7
1594 1594 1.9863642847964475e-6
1595 1594 9.118937742738252e-7
1594 1595 9.118937742747449e-7
1595 1595 2.0145690317760877e-6
1596 1595 -9.21355148302608e-7
1595 1596 -9.213551483026724e-7
1596 1596 1.990744025243321e-6
1597 1596 -9.170624120174408e-7
1596 1597 -9.170624120182955e-7
1597 1597 2.0039116605528e-6
1598 1597 8.986949894017855e-7
1597 1598 8.986949894034345e-7
1598 1598 1.9956376961451534e-6
1599 1598 9.267791986903802e-7
1598 1599 9.267791986899316e-7
1599 1599 1.9957086614243485e-6
1600 1599 -9.153059226066348e-7
1599 1600 -9.153059226065319e-7
1600 1600 2.0037937091608453e-6
1601 1600 -9.21159274180691e-7
1600 1601 -9.211592741812904e-7
1601 1601 2.005859923479206e-6
1602 1601 9.182267742544395e-7
1601 1602 9.182267742546008e-7
1602 1602 1.9820448657932576e-6
1603 1602 -9.149163466984064e-7
1602 1603 -9.149163466991088e-7
1603 1603 2.015902260262537e-6
1604 1603 -9.065964373180545e-7
1603 1604 -9.065964373178615e-7
1604 1604 1.9776704976413362e-6
1605 1604 9.084854376941376e-7
1604 1605 9.084854376934135e-7
1605 1605 1.997733617995682e-6
1606 1605 -9.263537601166839e-7
1605 1606 -9.263537601173291e-7
1606 1606 2.0140434508672452e-6
1607 1606 9.11790276839452e-7
1606 1607 9.117902768384822e-7
1607 1607 1.9787131891831515e-6
1608 1607 -9.049516031276227e-7
1607 1608 -9.04951603127806e-7
1608 1608 2.017907953884701e-6
1609 1608 9.061479756878486e-7
1608 1609 9.061479756879141e-7
1609 1609 2.003501729437475e-6
1610 1609 9.147213892668249e-7
1609 1610 9.147213892674997e-7
1610 1610 1.9501857613864854e-6
1611 1610 -9.174007618401448e-7
1610 1611 -9.174007618388978e-7
1611 1611 1.998229790920524e-6
1612 1611 -9.083651052154374e-7
1611 1612 -9.083651052158683e-7
1612 1612 1.9895466926675964e-6
1613 1612 9.303228060076013e-7
1612 1613 9.303228060075877e-7
1613 1613 2.0153017901330294e-6
1614 1613 -9.170634098698382e-7
1613 1614 -9.170634098697833e-7
1614 1614 1.9932217132255358e-6
1615 1614 9.051426404130113e-7
1614 1615 9.051426404127705e-7
1615 1615 1.9823011861665812e-6
1616 1615 9.166810289474401e-7
1615 1616 9.166810289479626e-7
1616 1616 2.036339118430797e-6
1617 1616 9.063748653210456e-7
1616 1617 9.063748653209106e-7
1617 1617 1.984073594134722e-6
1618 1617 -9.062050707390002e-7
1617 1618 -9.06205070738876e-7
1618 1618 2.033158544726557e-6
1619 1618 9.123168732780653e-7
1618 1619 9.12316873278398e-7
1619 1619 2.0064495261915906e-6
1620 1619 -9.238466970891615e-7
1619 1620 -9.238466970902871e-7
1620 1620 2.00600529975783e-6
1621 1620 9.121598780079074e-7
1620 1621 9.121598780073648e-7
1621 1621 2.0096660175044664e-6
1622 1621 9.303501781824253e-7
1621 1622 9.303501781819865e-7
1622 1622 2.0073290460215734e-6
1623 1622 8.933687914669488e-7
1622 1623 8.933687914667513e-7
1623 1623 1.9340030561554696e-6
1624 1623 -9.126628648316581e-7
1623 1624 -9.126628648327119e-7
1624 1624 2.005928128911452e-6
1625 1624 -9.128722900301448e-7
1624 1625 -9.128722900290163e-7
1625 1625 2.006365522749628e-6
1626 1625 -9.125150681486142e-7
1625 1626 -9.12515068149194e-7
1626 1626 2.018403379890503e-6
1627 1626 -9.216913430263993e-7
1626 1627 -9.216913430260859e-7
1627 1627 2.001529536284839e-6
1628 1627 9.351568848587985e-7
1627 1628 9.351568848594145e-7
1628 1628 1.9741356385496225e-6
1629 1628 8.900968380542346e-7
1628 1629 8.900968380539314e-7
1629 1629 2.052585302638773e-6
1630 1629 -9.357367912183268e-7
1629 1630 -9.357367912181626e-7
1630 1630 1.9762796761428e-6
1631 1630 9.012492667796128e-7
1630 1631 9.012492667785971e-7
1631 1631 1.9940291851275434e-6
1632 1631 -9.200556835780307e-7
1631 1632 -9.20055683579066e-7
1632 1632 2.0219471393393198e-6
1633 1632 -9.141666585282283e-7
1632 1633 -9.141666585271642e-7
1633 1633 1.975127930876388e-6
1634 1633 9.277918437829985e-7
1633 1634 9.277918437827334e-7
1634 1634 1.9824652712589227e-6
1635 1634 -9.016718476439061e-7
1634 1635 -9.016718476444013e-7
1635 1635 2.017932898693392e-6
1636 1635 9.218373245119778e-7
1635 1636 9.21837324512994e-7
1636 1636 2.000831887737721e-6
1637 1636 9.254680439787114e-7
1636 1637 9.254680439785459e-7
1637 1637 2.0207207410562694e-6
1638 1637 9.097413805509776e-7
1637 1638 9.097413805506386e-7
1638 1638 1.9917425494852245e-6
1639 1638 8.945658827176519e-7
1638 1639 8.94565882717471e-7
1639 1639 2.0051722917972306e-6
1640 1639 -9.064683207825416e-7
1639 1640 -9.064683207828003e-7
1640 1640 2.031860886318356e-6
1641 1640 -9.229245696643453e-7
1640 1641 -9.229245696648498e-7
1641 1641 1.990754048972094e-6
1642 1641 -9.104226778529846e-7
1641 1642 -9.104226778532571e-7
1642 1642 2.0350243617173536e-6
1643 1642 9.141065195878722e-7
1642 1643 9.141065195877669e-7
1643 1643 2.030434921139229e-6
1644 1643 -9.300098089989444e-7
1643 1644 -9.30009808999316e-7
1644 1644 1.9811321422667793e-6
1645 1644 -8.972438796280972e-7
1644 1645 -8.972438796281044e-7
1645 1645 2.012634605487484e-6
1646 1645 -9.034730457355605e-7
1645 1646 -9.034730457350256e-7
1646 1646 1.984206216225011e-6
1647 1646 -9.183934481234847e-7
1646 1647 -9.183934481227449e-7
1647 1647 1.990024812924818e-6
1648 1647 9.15242197568642e-7
1647 1648 9.152421975690741e-7
1648 1648 2.040438566611554e-6
1649 1648 9.022591818757982e-7
1648 1649 9.022591818753266e-7
1649 1649 2.003666145712704e-6
1650 1649 9.225627888924859e-7
1649 1650 9.225627888914927e-7
1650 1650 2.0065087204680107e-6
1651 1650 -9.099572904088861e-7
1650 1651 -9.099572904086998e-7
1651 1651 2.050739529329348e-6
1652 1651 9.277534593400221e-7
1651 1652 9.27753459340296e-7
1652 1652 1.987448989492012e-6
1653 1652 9.095387302827808e-7
1652 1653 9.095387302826261e-7
1653 1653 1.9876661312377534e-6
1654 1653 9.150445296409515e-7
1653 1654 9.150445296408218e-7
1654 1654 1.987032911054169e-6
1655 1654 -9.083230765406747e-7
1654 1655 -9.083230765414757e-7
1655 1655 1.980638386631331e-6
1656 1655 -8.928077885588608e-7
1655 1656 -8.928077885585438e-7
1656 1656 2.0048583861399045e-6
1657 1656 -9.159820801244036e-7
1656 1657 -9.159820801246413e-7
1657 1657 2.027018908229732e-6
1658 1657 9.108829159460174e-7
1657 1658 9.108829159457781e-7
1658 1658 1.9306303221919668e-6
1659 1658 9.009620104078822e-7
1658 1659 9.009620104069883e-7
1659 1659 1.978228143395776e-6
1660 1659 9.053982877515722e-7
1659 1660 9.053982877520891e-7
1660 1660 2.0254436707120527e-6
1661 1660 -9.135597396210206e-7
1660 1661 -9.135597396215899e-7
1661 1661 2.007961535207297e-6
1662 1661 -8.994559133477796e-7
1661 1662 -8.994559133489136e-7
1662 1662 1.9903225485237542e-6
1663 1662 9.106340862258e-7
1662 1663 9.106340862247524e-7
1663 1663 1.9983298559434367e-6
1664 1663 9.181667553121612e-7
1663 1664 9.18166755311908e-7
1664 1664 2.0413320508585706e-6
1665 1664 8.991448086939982e-7
1664 1665 8.991448086941307e-7
1665 1665 1.9997528516494533e-6
1666 1665 9.209371989808524e-7
1665 1666 9.209371989810627e-7
1666 1666 2.005012904249407e-6
1667 1666 9.25174406225523e-7
1666 1667 9.251744062261763e-7
1667 1667 2.0040095421370668e-6
1668 1667 -8.85187140413997e-7
1667 1668 -8.851871404137308e-7
1668 1668 1.980115967898776e-6
1669 1668 9.011714533712367e-7
1668 1669 9.011714533707516e-7
1669 1669 2.023761000283856e-6
1670 1669 9.116714012595728e-7
1669 1670 9.116714012595725e-7
1670 1670 1.99847450122006e-6
1671 1670 9.056036772003045e-7
1670 1671 9.056036772001183e-7
1671 1671 1.9870956544835894e-6
1672 1671 -9.065320419594439e-7
1671 1672 -9.065320419606011e-7
1672 1672 1.984789533907109e-6
1673 1672 -9.088512601073305e-7
1672 1673 -9.088512601080105e-7
1673 1673 1.976939336890472e-6
1674 1673 9.048604734953877e-7
1673 1674 9.048604734956943e-7
1674 1674 2.0152907638133656e-6
1675 1674 -9.206963607367334e-7
1674 1675 -9.206963607356671e-7
1675 1675 1.9869622766070657e-6
1676 1675 9.069823283277597e-7
1675 1676 9.069823283282328e-7
1676 1676 2.0044536060206618e-6
1677 1676 9.089419967011687e-7
1676 1677 9.089419967003393e-7
1677 1677 2.0063081651843627e-6
1678 1677 9.167952292098638e-7
1677 1678 9.167952292102242e-7
1678 1678 2.0075811537853103e-6
1679 1678 -9.020294704133021e-7
1678 1679 -9.020294704118304e-7
1679 1679 1.9834500035466515e-6
1680 1679 -8.946673281837616e-7
1679 1680 -8.946673281841274e-7
1680 1680 2.0405818631667947e-6
1681 1680 9.200620735164768e-7
1680 1681 9.200620735160511e-7
1681 1681 2.0040520697135292e-6
1682 1681 -9.074737370277904e-7
1681 1682 -9.074737370277487e-7
1682 1682 2.0279751928975014e-6
1683 1682 -8.840674846811463e-7
1682 1683 -8.840674846807363e-7
1683 1683 2.005508146129636e-6
1684 1683 -9.110513251122781e-7
1683 1684 -9.110513251127922e-7
1684 1684 1.96909464532104e-6
1685 1684 -9.17696806048843e-7
1684 1685 -9.176968060477756e-7
1685 1685 2.0063809774344677e-6
1686 1685 9.118265527779829e-7
1685 1686 9.118265527782024e-7
1686 1686 1.9875873781883467e-6
1687 1686 9.084018407567785e-7
1686 1687 9.084018407571871e-7
1687 1687 2.000884834141098e-6
1688 1687 -9.027634655684144e-7
1687 1688 -9.027634655687724e-7
1688 1688 2.0027766327077994e-6
1689 1688 -9.059715496692975e-7
1688 1689 -9.059715496698146e-7
1689 1689 2.0144790799502778e-6
1690 1689 -9.032509196764366e-7
1689 1690 -9.03250919677523e-7
1690 1690 1.9927723099768188e-6
1691 1690 9.04160306875414e-7
1690 1691 9.041603068742502e-7
1691 1691 2.0256683041874972e-6
1692 1691 9.041097130854753e-7
1691 1692 9.041097130863501e-7
1692 1692 1.9865526515249513e-6
1693 1692 -9.093875548413848e-7
1692 1693 -9.093875548418955e-7
1693 1693 2.0230014973811485e-6
1694 1693 -9.155977799267236e-7
1693 1694 -9.155977799263925e-7
1694 1694 1.9786220019292723e-6
1695 1694 9.068043758197601e-7
1694 1695 9.068043758191434e-7
1695 1695 1.9890206443273527e-6
1696 1695 9.16587132709893e-7
1695 1696 9.165871327100153e-7
1696 1696 1.9970042188138233e-6
1697 1696 -9.14961916772742e-7
1696 1697 -9.149619167715251e-7
1697 1697 1.9980999826625243e-6
1698 1697 8.89001835266099e-7
1697 1698 8.890018352659705e-7
1698 1698 2.0282398662474085e-6
1699 1698 9.188497484640367e-7
1698 1699 9.188497484645086e-7
1699 1699 1.971249024813031e-6
1700 1699 8.864163914395303e-7
1699 1700 8.864163914401101e-7
1700 1700 2.0024911970960536e-6
1701 1700 -9.088547393936853e-7
1700 1701 -9.088547393922562e-7
1701 1701 1.97031766819107e-6
1702 1701 -9.200620081236289e-7
1701 1702 -9.200620081236558e-7
1702 1702 2.0229680198655136e-6
1703 1702 9.011226170764036e-7
1702 1703 9.011226170758896e-7
1703 1703 1.967520447299813e-6
1704 1703 -8.974967061287643e-7
1703 1704 -8.974967061288733e-7
1704 1704 2.0153687016717053e-6
1705 1704 9.024827260165521e-7
1704 1705 9.024827260166294e-7
1705 1705 2.029751858466512e-6
1706 1705 9.19637982650933e-7
1705 1706 9.196379826501367e-7
1706 1706 1.9913540565457877e-6
1707 1706 -8.947583170397683e-7
1706 1707 -8.947583170410929e-7
1707 1707 1.9904510382658314e-6
1708 1707 -9.018353675986495e-7
1707 1708 -9.01835367598946e-7
1708 1708 1.9972839660763333e-6
1709 1708 9.022011628942614e-7
1708 1709 9.022011628956256e-7
1709 1709 2.002971625855179e-6
1710 1709 -9.001646263486022e-7
1709 1710 -9.001646263486439e-7
1710 1710 1.9785935469225367e-6
1711 1710 8.824399803603062e-7
1710 1711 8.824399803604856e-7
1711 1711 2.0160130459705478e-6
1712 1711 -9.082615926190398e-7
1711 1712 -9.082615926196786e-7
1712 1712 1.9929490168712597e-6
1713 1712 -9.090762215871427e-7
1712 1713 -9.090762215866844e-7
1713 1713 2.009270085434507e-6
1714 1713 9.033761444861493e-7
1713 1714 9.033761444866558e-7
1714 1714 2.0154708319186803e-6
1715 1714 9.124700918615297e-7
1714 1715 9.124700918632043e-7
1715 1715 2.010869247563641e-6
1716 1715 -9.064031060472019e-7
1715 1716 -9.064031060463969e-7
1716 1716 2.0117080757541332e-6
1717 1716 8.891364912978823e-7
1716 1717 8.891364912986692e-7
1717 1717 1.996377843115157e-6
1718 1717 9.147419401439986e-7
1717 1718 9.14741940143824e-7
1718 1718 1.9933118143861216e-6
1719 1718 -8.977598781467242e-7
1718 1719 -8.977598781464871e-7
1719 1719 2.0408638964742204e-6
1720 1719 8.995556596917828e-7
1719 1720 8.995556596916636e-7
1720 1720 1.976010804721685e-6
1721 1720 8.799834629144543e-7
1720 1721 8.799834629154884e-7
1721 1721 2.02664317939001e-6
1722 1721 9.12712149795912e-7
1721 1722 9.127121497951389e-7
1722 1722 1.987849008427245e-6
1723 1722 8.927868109605187e-7
1722 1723 8.927868109599313e-7
1723 1723 1.9783858007582886e-6
1724 1723 9.025823306802497e-7
1723 1724 9.025823306791396e-7
1724 1724 2.003705510739826e-6
1725 1724 -9.148456374397597e-7
1724 1725 -9.148456374401522e-7
1725 1725 1.9880875308051268e-6
1726 1725 -8.961130226373387e-7
1725 1726 -8.961130226376127e-7
1726 1726 1.966459864042824e-6
1727 1726 9.0468181856783e-7
1726 1727 9.046818185682933e-7
1727 1727 2.0190411219372196e-6
1728 1727 9.079432681033576e-7
1727 1728 9.079432681032486e-7
1728 1728 1.9890886328877977e-6
1729 1728 8.959286804097086e-7
1728 1729 8.959286804089075e-7
1729 1729 2.027048236742036e-6
1730 1729 9.213854904718615e-7
1729 1730 9.213854904724373e-7
1730 1730 1.9415630955027e-6
1731 1730 -8.669323215127793e-7
1730 1731 -8.669323215124943e-7
1731 1731 2.028028221493588e-6
1732 1731 -9.014954881397761e-7
1731 1732 -9.014954881406857e-7
1732 1732 1.9894837391627796e-6
1733 1732 9.165675369727423e-7
1732 1733 9.165675369719463e-7
1733 1733 2.0127353925543533e-6
1734 1733 8.967994510110423e-7
1733 1734 8.967994510108046e-7
1734 1734 2.004187499362328e-6
1735 1734 8.994071826700536e-7
1734 1735 8.994071826697095e-7
1735 1735 2.0046323253767235e-6
1736 1735 8.951204120325581e-7
1735 1736 8.951204120328624e-7
1736 1736 2.0018318445265393e-6
1737 1736 9.098519345488592e-7
1736 1737 9.09851934548692e-7
1737 1737 1.9758711418842967e-6
1738 1737 -9.065152581177729e-7
1737 1738 -9.06515258118421e-7
1738 1738 2.0236886063079085e-6
1739 1738 8.904420028297414e-7
1738 1739 8.904420028296095e-7
1739 1739 1.97863797130876e-6
1740 1739 9.260226078515633e-7
1739 1740 9.260226078512074e-7
1740 1740 2.00610319858523e-6
1741 1740 -8.844401154469793e-7
1740 1741 -8.844401154471235e-7
1741 1741 1.9777939531703526e-6
1742 1741 9.01747029214843e-7
1741 1742 9.017470292153112e-7
1742 1742 2.0053742980672337e-6
1743 1742 -8.851655242902103e-7
1742 1743 -8.851655242894763e-7
1743 1743 1.9911802074431795e-6
1744 1743 8.936914600955898e-7
1743 1744 8.936914600959984e-7
1744 1744 1.997430943804473e-6
1745 1744 9.021734728201364e-7
1744 1745 9.021734728195166e-7
1745 1745 2.0140256284848983e-6
1746 1745 9.003785517737591e-7
1745 1746 9.003785517745452e-7
1746 1746 2.0245172256542724e-6
1747 1746 9.082196176596037e-7
1746 1747 9.082196176604328e-7
1747 1747 2.0124999507351655e-6
1748 1747 8.941104644066475e-7
1747 1748 8.941104644067357e-7
1748 1748 1.9967732960563453e-6
1749 1748 9.05624010321879e-7
1748 1749 9.056240103211416e-7
1749 1749 1.9937543911218894e-6
1750 1749 -8.830094906328766e-7
1749 1750 -8.830094906336429e-7
1750 1750 2.0207648451577684e-6
1751 1750 -9.073069423624083e-7
1750 1751 -9.07306942361974e-7
1751 1751 1.9784941337228117e-6
1752 1751 8.89642965215052e-7
1751 1752 8.896429652156837e-7
1752 1752 1.9859967149972757e-6
1753 1752 -9.021725460360914e-7
1752 1753 -9.021725460354624e-7
1753 1753 2.0303426958044617e-6
1754 1753 -9.066574733931785e-7
1753 1754 -9.066574733923884e-7
1754 1754 2.010529337570754e-6
1755 1754 -8.801038161048294e-7
1754 1755 -8.801038161051027e-7
1755 1755 2.0060932471131046e-6
1756 1755 -9.077188144550424e-7
1755 1756 -9.077188144559668e-7
1756 1756 1.9786182710195346e-6
1757 1756 8.900561905813025e-7
1756 1757 8.900561905816437e-7
1757 1757 1.9936540786445825e-6
1758 1757 9.078772487184284e-7
1757 1758 9.078772487182669e-7
1758 1758 1.985746738248182e-6
1759 1758 8.931287933608277e-7
1758 1759 8.931287933604429e-7
1759 1759 1.978751672942841e-6
1760 1759 -9.064183530294284e-7
1759 1760 -9.064183530293637e-7
1760 1760 1.9989316203935543e-6
1761 1760 8.774321614989315e-7
1760 1761 8.774321614993052e-7
1761 1761 2.0001859368492307e-6
1762 1761 -9.099103533536125e-7
1761 1762 -9.099103533544826e-7
1762 1762 2.0098499364473123e-6
1763 1762 -8.970310690928741e-7
1762 1763 -8.970310690935798e-7
1763 1763 1.9910150346978313e-6
1764 1763 8.940319202084144e-7
1763 1764 8.940319202085884e-7
1764 1764 2.0021412600054795e-6
1765 1764 8.863890486471968e-7
1764 1765 8.863890486472682e-7
1765 1765 1.9969921056281306e-6
1766 1765 -9.077433704344789e-7
1765 1766 -9.077433704346187e-7
1766 1766 1.985507291650984e-6
1767 1766 -9.001205562980229e-7
1766 1767 -9.001205562965571e-7
1767 1767 2.004376592800654e-6
1768 1767 -8.998156660705736e-7
1767 1768 -8.998156660707734e-7
1768 1768 2.0441348965839348e-6
1769 1768 -9.04894623406442e-7
1768 1769 -9.048946234057033e-7
1769 1769 1.9877916303884495e-6
1770 1769 9.013993083312404e-7
1769 1770 9.013993083305209e-7
1770 1770 2.0131948798180693e-6
1771 1770 -8.948901938751499e-7
1770 1771 -8.948901938758248e-7
1771 1771 1.9457276332818147e-6
1772 1771 -8.947421109835025e-7
1771 1772 -8.947421109837272e-7
1772 1772 2.006038826311348e-6
1773 1772 8.982167024353491e-7
1772 1773 8.982167024351076e-7
1773 1773 1.9697997441280236e-6
1774 1773 -9.055096216852594e-7
1773 1774 -9.055096216851652e-7
1774 1774 2.041966029020764e-6
1775 1774 9.032547253094333e-7
1774 1775 9.032547253099844e-7
1775 1775 1.9856570604614402e-6
1776 1775 8.859658637834542e-7
1775 1776 8.859658637836151e-7
1776 1776 1.9906500682703797e-6
1777 1776 9.215568770120968e-7
1776 1777 9.215568770109229e-7
1777 1777 1.993267951464634e-6
1778 1777 -8.957680601957803e-7
1777 1778 -8.957680601957329e-7
1778 1778 2.013610541975504e-6
1779 1778 8.965408396726183e-7
1778 1779 8.965408396732095e-7
1779 1779 1.985681954858929e-6
1780 1779 -8.9373926938193e-7
1779 1780 -8.937392693815811e-7
1780 1780 2.010658364551919e-6
1781 1780 9.02646085404357e-7
1780 1781 9.026460854046094e-7
1781 1781 2.0167469827827775e-6
1782 1781 -8.846840839321182e-7
1781 1782 -8.846840839314546e-7
1782 1782 1.9980687425836585e-6
1783 1782 9.081850961498105e-7
1782 1783 9.081850961491105e-7
1783 1783 2.0142908196719616e-6
1784 1783 8.822681093095377e-7
1783 1784 8.822681093089746e-7
1784 1784 2.0065962087900414e-6
1785 1784 9.021533658711708e-7
1784 1785 9.021533658720709e-7
1785 1785 1.97135038352369e-6
1786 1785 8.997258477089586e-7
1785 1786 8.997258477094765e-7
1786 1786 2.0090604246217726e-6
1787 1786 8.808917612135231e-7
1786 1787 8.808917612141021e-7
1787 1787 2.0089833625984696e-6
1788 1787 -8.851496172223187e-7
1787 1788 -8.851496172219539e-7
1788 1788 1.9945108069652725e-6
1789 1788 -8.977399555314615e-7
1788 1789 -8.977399555313467e-7
1789 1789 2.0214289948925853e-6
1790 1789 -8.822656352028274e-7
1789 1790 -8.822656352030328e-7
1790 1790 2.001196136154107e-6
1791 1790 8.892635168211239e-7
1790 1791 8.892635168211854e-7
1791 1791 1.992689110136894e-6
1792 1791 8.832902389067624e-7
1791 1792 8.832902389070443e-7
1792 1792 1.9886774518370834e-6
1793 1792 -8.981324226483333e-7
1792 1793 -8.98132422648076e-7
1793 1793 2.017717787782966e-6
1794 1793 -9.059824706450704e-7
1793 1794 -9.059824706452748e-7
1794 1794 2.041038873366186e-6
1795 1794 8.893604882019568e-7
1794 1795 8.893604882004452e-7
1795 1795 1.991356363639558e-6
1796 1795 -9.01090715895716e-7
1795 1796 -9.010907158974421e-7
1796 1796 1.988787140301484e-6
1797 1796 8.992323795982589e-7
1796 1797 8.992323795986769e-7
1797 1797 2.011868777416237e-6
1798 1797 -8.952847026138022e-7
1797 1798 -8.952847026129852e-7
1798 1798 1.9895179658990484e-6
1799 1798 -8.809568140254499e-7
1798 1799 -8.809568140260102e-7
1799 1799 2.0127544934417154e-6
1800 1799 9.058518848891897e-7
1799 1800 9.05851884888575e-7
1800 1800 2.027900174321268e-6
1801 1800 8.871093181143164e-7
1800 1801 8.871093181147975e-7
1801 1801 1.9996620502054325e-6
1802 1801 -9.080064765484841e-7
1801 1802 -9.080064765484103e-7
1802 1802 1.9673997645171653e-6
1803 1802 8.870398091835536e-7
1802 1803 8.870398091839643e-7
1803 1803 2.01659754901305e-6
1804 1803 -8.974904868654329e-7
1803 1804 -8.974904868655112e-7
1804 1804 2.030793284866904e-6
1805 1804 9.041508718134787e-7
1804 1805 9.041508718131561e-7
1805 1805 1.975659786928969e-6
1806 1805 -8.76208251170222e-7
1805 1806 -8.762082511686669e-7
1806 1806 1.9726625242444573e-6
1807 1806 9.045380000028e-7
1806 1807 9.045380000024301e-7
1807 1807 1.9982634646506734e-6
1808 1807 8.751392471237742e-7
1807 1808 8.751392471234202e-7
1808 1808 1.9800426938330665e-6
1809 1808 9.026373233526926e-7
1808 1809 9.026373233514201e-7
1809 1809 2.0046537289414787e-6
1810 1809 8.81942057537464e-7
1809 1810 8.819420575386865e-7
1810 1810 2.0001711644443013e-6
1811 1810 -8.884690588271544e-7
1810 1811 -8.884690588277638e-7
1811 1811 1.9907415942206383e-6
1812 1811 -8.899224248534732e-7
1811 1812 -8.899224248523593e-7
1812 1812 2.0045643632432927e-6
1813 1812 9.049046341327426e-7
1812 1813 9.049046341323678e-7
1813 1813 1.9830509337651222e-6
1814 1813 8.946387074203562e-7
1813 1814 8.946387074202435e-7
1814 1814 2.0143511117468263e-6
1815 1814 8.901105535366132e-7
1814 1815 8.901105535363578e-7
1815 1815 1.9949607896225653e-6
1816 1815 -8.822754328814712e-7
1815 1816 -8.822754328823017e-7
1816 1816 1.9976252114581455e-6
1817 1816 -8.92726951302247e-7
1816 1817 -8.927269513028404e-7
1817 1817 1.9790635381569005e-6
1818 1817 -8.86565695354941e-7
1817 1818 -8.865656953550583e-7
1818 1818 2.0417615189829657e-6
1819 1818 -8.827560069556217e-7
1818 1819 -8.827560069557506e-7
1819 1819 1.996756190208203e-6
1820 1819 -8.964470108616226e-7
1819 1820 -8.964470108612121e-7
1820 1820 2.0129659237061898e-6
1821 1820 -8.766254775957452e-7
1820 1821 -8.766254775963282e-7
1821 1821 2.0065391283899518e-6
1822 1821 8.890446584063222e-7
1821 1822 8.89044658405838e-7
1822 1822 2.009961627401475e-6
1823 1822 8.812699935172055e-7
1822 1823 8.812699935164774e-7
1823 1823 1.9567080285216907e-6
1824 1823 -8.842748549818119e-7
1823 1824 -8.842748549816172e-7
1824 1824 1.9810643633627537e-6
1825 1824 8.841937263143463e-7
1824 1825 8.841937263144255e-7
1825 1825 2.0216544821597084e-6
1826 1825 -8.947589632454221e-7
1825 1826 -8.947589632452899e-7
1826 1826 1.9971144358880017e-6
1827 1826 -8.991406212156143e-7
1826 1827 -8.991406212154337e-7
1827 1827 1.9902131859814506e-6
1828 1827 8.749387697554401e-7
1827 1828 8.749387697550726e-7
1828 1828 2.0207094825584466e-6
1829 1828 8.953653371509306e-7
1828 1829 8.953653371502624e-7
1829 1829 2.001838887868178e-6
1830 1829 8.864564326259914e-7
1829 1830 8.864564326275988e-7
1830 1830 1.97968588095972e-6
1831 1830 -8.998704917046977e-7
1830 1831 -8.998704917052298e-7
1831 1831 2.0130793238333325e-6
1832 1831 8.915067499799209e-7
1831 1832 8.91506749979554e-7
1832 1832 1.9850658973734853e-6
1833 1832 -8.888417422527684e-7
1832 1833 -8.888417422526675e-7
1833 1833 1.9901270920698733e-6
1834 1833 8.895153261617986e-7
1833 1834 8.89515326162173e-7
1834 1834 1.9744679481640975e-6
1835 1834 8.860257324701384e-7
1834 1835 8.860257324697035e-7
1835 1835 2.0252857681385534e-6
1836 1835 -8.833104142897546e-7
1835 1836 -8.833104142903223e-7
1836 1836 2.002560522485554e-6
1837 1836 -8.912308773558949e-7
1836 1837 -8.912308773557974e-7
1837 1837 1.99376193086254e-6
1838 1837 8.70034553896301e-7
1837 1838 8.700345538967597e-7
1838 1838 1.9959572822130507e-6
1839 1838 -8.907546664589524e-7
1838 1839 -8.907546664592593e-7
1839 1839 2.0273777519068057e-6
1840 1839 8.867110721446389e-7
1839 1840 8.867110721439294e-7
1840 1840 1.998811857411602e-6
1841 1840 -8.894271977888863e-7
1840 1841 -8.894271977892893e-7
1841 1841 1.9992304113737352e-6
1842 1841 -8.840401469465258e-7
1841 1842 -8.84040146947348e-7
1842 1842 2.0064571109635566e-6
1843 1842 8.897025421541163e-7
1842 1843 8.89702542154455e-7
1843 1843 1.9977511488192795e-6
1844 1843 -8.988438834286102e-7
1843 1844 -8.988438834284221e-7
1844 1844 2.0024973820625973e-6
1845 1844 -8.976536748455483e-7
1844 1845 -8.976536748459761e-7
1845 1845 1.9744446826913116e-6
1846 1845 8.872525717401046e-7
1845 1846 8.872525717388907e-7
1846 1846 1.980550216905702e-6
1847 1846 8.994583117703045e-7
1846 1847 8.994583117703966e-7
1847 1847 2.030452464843889e-6
1848 1847 8.832659069654513e-7
1847 1848 8.832659069642966e-7
1848 1848 2.0035409338296833e-6
1849 1848 -8.758879434689068e-7
1848 1849 -8.75887943469528e-7
1849 1849 1.9835369644383035e-6
1850 1849 -8.998804536148435e-7
1849 1850 -8.998804536151958e-7
1850 1850 1.9870219035548724e-6
1851 1850 8.721065113658217e-7
1850 1851 8.721065113655796e-7
1851 1851 2.01858369775808e-6
1852 1851 8.85365162783162e-7
1851 1852 8.853651627826649e-7
1852 1852 1.9951307990373857e-6
1853 1852 -9.038251761243756e-7
1852 1853 -9.038251761240973e-7
1853 1853 2.0014981278311717e-6
1854 1853 8.949923219805532e-7
1853 1854 8.949923219797481e-7
1854 1854 2.014977673966279e-6
1855 1854 8.84204922148295e-7
1854 1855 8.842049221489394e-7
1855 1855 2.00691524106539e-6
1856 1855 -8.822018187062253e-7
1855 1856 -8.822018187060331e-7
1856 1856 2.026308262511732e-6
1857 1856 -8.899674708832985e-7
1856 1857 -8.89967470883459e-7
1857 1857 2.006100388719e-6
1858 1857 -8.844074832887278e-7
1857 1858 -8.844074832886683e-7
1858 1858 2.0030844290141294e-6
1859 1858 -8.755303430296351e-7
1858 1859 -8.755303430298463e-7
1859 1859 2.0161007536729932e-6
1860 1859 8.826797838168038e-7
1859 1860 8.826797838155819e-7
1860 1860 2.0386594794248426e-6
1861 1860 8.820997840781258e-7
1860 1861 8.820997840776676e-7
1861 1861 2.0080961940431604e-6
1862 1861 8.753379017528127e-7
1861 1862 8.753379017539242e-7
1862 1862 1.9868535208482005e-6
1863 1862 -9.031583016638848e-7
1862 1863 -9.031583016640735e-7
1863 1863 2.011012927792783e-6
1864 1863 -8.751664881239309e-7
1863 1864 -8.751664881236592e-7
1864 1864 2.0029242659923043e-6
1865 1864 -8.861941667498965e-7
1864 1865 -8.861941667500114e-7
1865 1865 1.9809545012546475e-6
1866 1865 -8.7825510059664e-7
1865 1866 -8.78255100596098e-7
1866 1866 2.0259701638191525e-6
1867 1866 -8.865149533380872e-7
1866 1867 -8.865149533377968e-7
1867 1867 1.9592070829794084e-6
1868 1867 8.994136524597335e-7
1867 1868 8.994136524604947e-7
1868 1868 2.015797691556942e-6
1869 1868 -8.836930735163612e-7
1868 1869 -8.83693073518496e-7
1869 1869 1.976403502089706e-6
1870 1869 8.741857813946273e-7
1869 1870 8.741857813941333e-7
1870 1870 1.996081938026292e-6
1871 1870 8.922567325555229e-7
1870 1871 8.922567325550889e-7
1871 1871 2.000529249854929e-6
1872 1871 8.78734766788962e-7
1871 1872 8.787347667893426e-7
1872 1872 2.0406178870230933e-6
1873 1872 8.804900435109813e-7
1872 1873 8.8049004351174e-7
1873 1873 2.0184341055026602e-6
1874 1873 -8.760441450898064e-7
1873 1874 -8.760441450897828e-7
1874 1874 1.996239522535633e-6
1875 1874 8.642965571027224e-7
1874 1875 8.642965571033939e-7
1875 1875 2.001891237032792e-6
1876 1875 -8.910414256737865e-7
1875 1876 -8.910414256735715e-7
1876 1876 1.9950439703458863e-6
1877 1876 -8.82858916865095e-7
1876 1877 -8.828589168650781e-7
1877 1877 1.98965501559444e-6
1878 1877 8.925727752776169e-7
1877 1878 8.925727752769447e-7
1878 1878 2.007144722294143e-6
1879 1878 -8.777816682527716e-7
1878 1879 -8.777816682530169e-7
1879 1879 1.95571445184154e-6
1880 1879 8.76687034571299e-7
1879 1880 8.766870345713223e-7
1880 1880 1.992162336816728e-6
1881 1880 -8.802020655585861e-7
1880 1881 -8.802020655578421e-7
1881 1881 1.9707432460039116e-6
1882 1881 8.838732309111439e-7
1881 1882 8.838732309110977e-7
1882 1882 2.001242322910444e-6
1883 1882 -8.654215313741048e-7
1882 1883 -8.654215313748731e-7
1883 1883 1.9768182028119806e-6
1884 1883 -9.006713891936979e-7
1883 1884 -9.00671389193931e-7
1884 1884 1.987612227630865e-6
1885 1884 -8.771642303935427e-7
1884 1885 -8.77164230394484e-7
1885 1885 1.998177415539025e-6
1886 1885 -8.722015810896439e-7
1885 1886 -8.722015810908718e-7
1886 1886 2.0197443480793067e-6
1887 1886 -8.600690587252549e-7
1886 1887 -8.600690587241994e-7
1887 1887 1.9941038156390144e-6
1888 1887 8.761366801981124e-7
1887 1888 8.761366801970391e-7
1888 1888 1.9917862170678986e-6
1889 1888 -8.892985220785891e-7
1888 1889 -8.892985220801387e-7
1889 1889 1.9890881565578326e-6
1890 1889 8.884434663769481e-7
1889 1890 8.884434663779269e-7
1890 1890 2.017950802314121e-6
1891 1890 -8.673957739652663e-7
1890 1891 -8.673957739646559e-7
1891 1891 1.9861334850320637e-6
1892 1891 8.709606034999897e-7
1891 1892 8.709606035002306e-7
1892 1892 2.003161764145421e-6
1893 1892 8.905687163462975e-7
1892 1893 8.905687163449748e-7
1893 1893 2.0147831606805174e-6
1894 1893 8.709766721740044e-7
1893 1894 8.70976672174819e-7
1894 1894 2.014274834277248e-6
1895 1894 8.73855417266469e-7
1894 1895 8.738554172662481e-7
1895 1895 2.0038573059903653e-6
1896 1895 8.671150683773919e-7
1895 1896 8.671150683789742e-7
1896 1896 1.9973724012210005e-6
1897 1896 8.809161686418604e-7
1896 1897 8.809161686413686e-7
1897 1897 1.972658476159825e-6
1898 1897 8.732403692152042e-7
1897 1898 8.732403692142368e-7
1898 1898 1.9710121169220138e-6
1899 1898 -8.866589391734408e-7
1898 1899 -8.866589391734988e-7
1899 1899 2.017575462627671e-6
1900 1899 -8.776855683109499e-7
1899 1900 -8.776855683113795e-7
1900 1900 1.9897911017019356e-6
1901 1900 8.920937477982564e-7
1900 1901 8.920937477975669e-7
1901 1901 2.0190612832785914e-6
1902 1901 -8.91730335544526e-7
1901 1902 -8.917303355446406e-7
1902 1902 1.999593335706451e-6
1903 1902 -8.872836624146939e-7
1902 1903 -8.872836624146175e-7
1903 1903 1.9798509517649177e-6
1904 1903 -8.604543622682405e-7
1903 1904 -8.60454362269266e-7
1904 1904 2.0121051630654934e-6
1905 1904 8.842728243396428e-7
1904 1905 8.842728243390631e-7
1905 1905 2.00814686369761e-6
1906 1905 8.776510646694951e-7
1905 1906 8.77651064668789e-7
1906 1906 1.9763774848557437e-6
1907 1906 -8.681712764795046e-7
1906 1907 -8.681712764804252e-7
1907 1907 1.983382191034575e-6
1908 1907 -8.795760760971086e-7
1907 1908 -8.795760760969159e-7
1908 1908 2.0054508975635117e-6
1909 1908 -8.791986286088233e-7
1908 1909 -8.791986286089363e-7
1909 1909 1.999876324746543e-6
1910 1909 8.742842216940899e-7
1909 1910 8.742842216953663e-7
1910 1910 1.999624272391055e-6
1911 1910 -8.698184988098482e-7
1910 1911 -8.698184988094671e-7
1911 1911 2.005412699021284e-6
1912 1911 9.058533027906403e-7
1911 1912 9.058533027910154e-7
1912 1912 1.9925705413361806e-6
1913 1912 8.757466216306419e-7
1912 1913 8.757466216317939e-7
1913 1913 2.000905110689835e-6
1914 1913 8.82400199429299e-7
1913 1914 8.824001994278205e-7
1914 1914 2.0046711940256955e-6
1915 1914 -8.749879654493793e-7
1914 1915 -8.749879654490701e-7
1915 1915 1.991786467564749e-6
1916 1915 -8.803614877818938e-7
1915 1916 -8.803614877817391e-7
1916 1916 1.98114649120678e-6
1917 1916 8.664022754956349e-7
1916 1917 8.664022754946327e-7
1917 1917 1.9750170673631462e-6
1918 1917 8.822428888642334e-7
1917 1918 8.822428888640899e-7
1918 1918 2.0422676696889197e-6
1919 1918 -8.915861544795059e-7
1918 1919 -8.915861544787032e-7
1919 1919 1.978640334486536e-6
1920 1919 8.750713802549523e-7
1919 1920 8.750713802551867e-7
1920 1920 2.0073623472416017e-6
1921 1920 -8.853751724074239e-7
1920 1921 -8.853751724078603e-7
1921 1921 1.9540670632181336e-6
1922 1921 -8.675938025439199e-7
1921 1922 -8.67593802544139e-7
1922 1922 2.0195956258952586e-6
1923 1922 -8.781271389364374e-7
1922 1923 -8.781271389355464e-7
1923 1923 2.003700082387004e-6
1924 1923 8.670914672825586e-7
1923 1924 8.670914672826009e-7
1924 1924 2.0261544337724135e-6
1925 1924 -8.881087569480126e-7
1924 1925 -8.881087569479604e-7
1925 1925 1.9739897790622797e-6
1926 1925 8.951158021043821e-7
1925 1926 8.951158021045328e-7
1926 1926 2.0518889073349197e-6
1927 1926 -8.775651627667221e-7
1926 1927 -8.775651627665641e-7
1927 1927 2.007094239907916e-6
1928 1927 8.775124207541636e-7
1927 1928 8.775124207535328e-7
1928 1928 2.020053414226136e-6
1929 1928 8.78413763976161e-7
1928 1929 8.784137639750046e-7
1929 1929 1.9733936838151787e-6
1930 1929 8.826391791500258e-7
1929 1930 8.826391791505747e-7
1930 1930 2.0364953965945986e-6
1931 1930 8.808423265326216e-7
1930 1931 8.808423265332191e-7
1931 1931 1.9884094023042935e-6
1932 1931 8.75291900017874e-7
1931 1932 8.752919000184029e-7
1932 1932 2.0174908978935597e-6
1933 1932 8.870493924586147e-7
1932 1933 8.870493924580282e-7
1933 1933 2.019675646879089e-6
1934 1933 -8.823495674898509e-7
1933 1934 -8.823495674896616e-7
1934 1934 2.024358750154258e-6
1935 1934 8.698765368465828e-7
1934 1935 8.698765368469076e-7
1935 1935 1.988109660840317e-6
1936 1935 -8.713375280174726e-7
1935 1936 -8.713375280174576e-7
1936 1936 2.015043852187343e-6
1937 1936 -8.770794124902114e-7
1936 1937 -8.770794124893034e-7
1937 1937 2.006412514332708e-6
1938 1937 8.881932852454811e-7
1937 1938 8.88193285245723e-7
1938 1938 1.9571983420828993e-6
1939 1938 -8.630419059523356e-7
1938 1939 -8.630419059521369e-7
1939 1939 2.0336520065051356e-6
1940 1939 -8.785101424222023e-7
1939 1940 -8.785101424219112e-7
1940 1940 1.9860518089906703e-6
1941 1940 -8.712271758904389e-7
1940 1941 -8.712271758890632e-7
1941 1941 2.0350779018275148e-6
1942 1941 -8.643850862646035e-7
1941 1942 -8.643850862649949e-7
1942 1942 1.9789405502158923e-6
1943 1942 8.866473300780462e-7
1942 1943 8.866473300772239e-7
1943 1943 2.052274795343273e-6
1944 1943 -8.882756628814115e-7
1943 1944 -8.882756628814253e-7
1944 1944 1.9720245526054804e-6
1945 1944 8.773798814913945e-7
1944 1945 8.77379881491925e-7
1945 1945 2.014769236262372e-6
1946 1945 8.711288682476817e-7
1945 1946 8.71128868246857e-7
1946 1946 1.9830975147829047e-6
1947 1946 -8.666739667738059e-7
1946 1947 -8.666739667748206e-7
1947 1947 2.0094484876042996e-6
1948 1947 8.869761476428485e-7
1947 1948 8.869761476421484e-7
1948 1948 1.972173940125423e-6
1949 1948 -8.753107460284843e-7
1948 1949 -8.753107460290017e-7
1949 1949 1.9697416094300408e-6
1950 1949 -8.811286491691604e-7
1949 1950 -8.811286491702494e-7
1950 1950 2.0125807010232817e-6
1951 1950 8.667454556658425e-7
1950 1951 8.667454556664645e-7
1951 1951 2.040902961798343e-6
1952 1951 8.652056766440432e-7
1951 1952 8.652056766437195e-7
1952 1952 1.9935965663973486e-6
1953 1952 8.595032275009183e-7
1952 1953 8.595032275008739e-7
1953 1953 1.9878725229805013e-6
1954 1953 8.760633157753738e-7
1953 1954 8.760633157745396e-7
1954 1954 2.0188088790268706e-6
1955 1954 -8.640215790548866e-7
1954 1955 -8.640215790568953e-7
1955 1955 2.0115979412416127e-6
1956 1955 8.605913462365338e-7
1955 1956 8.605913462359074e-7
1956 1956 1.998954258594148e-6
1957 1956 -8.798927741813003e-7
1956 1957 -8.798927741822736e-7
1957 1957 1.9972225831873713e-6
1958 1957 -8.69558741409324e-7
1957 1958 -8.695587414096381e-7
1958 1958 2.0078559754367386e-6
1959 1958 8.603233846376415e-7
1958 1959 8.60323384637504e-7
1959 1959 1.9994814942004216e-6
1960 1959 -8.888847638784212e-7
1959 1960 -8.888847638788047e-7
1960 1960 2.0050398208983554e-6
1961 1960 -8.709088967225733e-7
1960 1961 -8.70908896722454e-7
1961 1961 1.982859705410802e-6
1962 1961 8.616954535995315e-7
1961 1962 8.616954535995722e-7
1962 1962 2.003317606170614e-6
1963 1962 8.776658494988957e-7
1962 1963 8.776658494993966e-7
1963 1963 2.0174644877069026e-6
1964 1963 8.700838873543401e-7
1963 1964 8.700838873544205e-7
1964 1964 2.005892132054229e-6
1965 1964 8.68685712836961e-7
1964 1965 8.686857128367256e-7
1965 1965 2.0013660760873373e-6
1966 1965 -8.566564498570041e-7
1965 1966 -8.566564498570822e-7
1966 1966 2.0104674670656077e-6
1967 1966 -8.739618104540235e-7
1966 1967 -8.73961810452968e-7
1967 1967 2.015335243028067e-6
1968 1967 8.778334956165592e-7
1967 1968 8.778334956167591e-7
1968 1968 1.989112940831855e-6
1969 1968 -8.801453724888004e-7
1968 1969 -8.801453724885361e-7
1969 1969 1.991457753845243e-6
1970 1969 8.873504831703057e-7
1969 1970 8.873504831716264e-7
1970 1970 2.0015581997450478e-6
1971 1970 -8.556489308750805e-7
1970 1971 -8.556489308738893e-7
1971 1971 2.0239485283344426e-6
1972 1971 -8.758226688903874e-7
1971 1972 -8.758226688910793e-7
1972 1972 1.9602335032440153e-6
1973 1972 8.680471312177333e-7
1972 1973 8.680471312173807e-7
1973 1973 2.0036672831604153e-6
1974 1973 -8.631386573453772e-7
1973 1974 -8.631386573448758e-7
1974 1974 1.9665706630122167e-6
1975 1974 -8.757759956069332e-7
1974 1975 -8.757759956074038e-7
1975 1975 2.03823563663268e-6
1976 1975 8.628214851410011e-7
1975 1976 8.62821485141568e-7
1976 1976 1.968381419634989e-6
1977 1976 -8.709978084303387e-7
1976 1977 -8.709978084295532e-7
1977 1977 2.021661974027498e-6
1978 1977 -8.53006295897149e-7
1977 1978 -8.530062958962302e-7
1978 1978 1.985048389929209e-6
1979 1978 8.629590862746235e-7
1978 1979 8.629590862753553e-7
1979 1979 1.991763546776684e-6
1980 1979 -8.665347513375373e-7
1979 1980 -8.665347513379192e-7
1980 1980 1.9952014054877714e-6
1981 1980 -8.559106685730242e-7
1980 1981 -8.559106685742178e-7
1981 1981 1.9638614819183043e-6
1982 1981 8.436612112640322e-7
1981 1982 8.436612112652201e-7
1982 1982 2.013599344670069e-6
1983 1982 -8.747058362407215e-7
1982 1983 -8.747058362398817e-7
1983 1983 2.003077453611726e-6
1984 1983 8.739244279826553e-7
1983 1984 8.739244279821358e-7
1984 1984 1.991289475743542e-6
1985 1984 8.882080593890067e-7
1984 1985 8.882080593884925e-7
1985 1985 1.991633524681413e-6
1986 1985 -8.440117456283715e-7
1985 1986 -8.440117456271547e-7
1986 1986 1.9970426543608234e-6
1987 1986 -8.712704568300094e-7
1986 1987 -8.712704568296443e-7
1987 1987 1.9942811704547116e-6
1988 1987 -8.68750919552475e-7
1987 1988 -8.687509195532719e-7
1988 1988 1.993382391399654e-6
1989 1988 -8.564777115130852e-7
1988 1989 -8.564777115128646e-7
1989 1989 1.99689704157139e-6
1990 1989 8.56113805104502e-7
1989 1990 8.561138051039641e-7
1990 1990 2.0101005073350234e-6
1991 1990 8.677062927614829e-7
1990 1991 8.67706292761657e-7
1991 1991 1.9881471669578772e-6
1992 1991 8.577108275303781e-7
1991 1992 8.577108275303786e-7
1992 1992 1.996070788966228e-6
1993 1992 -8.75953974025072e-7
1992 1993 -8.759539740248176e-7
1993 1993 2.0342758820132676e-6
1994 1993 8.472323325584572e-7
1993 1994 8.472323325583596e-7
1994 1994 1.978301972210726e-6
1995 1994 8.763159029159655e-7
1994 1995 8.763159029156427e-7
1995 1995 1.998015189430865e-6
1996 1995 8.633696945409926e-7
1995 1996 8.633696945418314e-7
1996 1996 2.050145559128146e-6
1997 1996 8.546912392750946e-7
1996 1997 8.54691239275625e-7
1997 1997 2.0004179795702053e-6
1998 1997 8.678557121280952e-7
1997 1998 8.67855712128054e-7
1998 1998 1.9974433379211247e-6
1999 1998 -8.529060347578678e-7
1998 1999 -8.529060347586041e-7
1999 1999 1.9908179847964736e-6
2000 1999 8.70717063760312e-7
1999 2000 8.707170637594622e-7
2000 2000 2.0240860672502904e-6
2001 2000 -8.602182024625492e-7
2000 2001 -8.602182024624612e-7
2001 2001 2.0274369898375132e-6
2002 2001 8.692116415184899e-7
2001 2002 8.692116415191705e-7
2002 2002 1.9836182692169582e-6
2003 2002 8.777886762068737e-7
2002 2003 8.777886762064759e-7
2003 2003 2.0161754197231647e-6
2004 2003 8.73149148255992e-7
2003 2004 8.731491482569785e-7
2004 2004 2.0009500458599743e-6
2005 2004 -8.474214246650525e-7
2004 2005 -8.474214246644584e-7
2005 2005 2.0084688218813587e-6
2006 2005 8.662054552362155e-7
2005 2006 8.662054552358676e-7
2006 2006 2.00581379705947e-6
2007 2006 8.693847896404951e-7
2006 2007 8.693847896403874e-7
2007 2007 2.0268343127641052e-6
2008 2007 8.618696426848812e-7
2007 2008 8.618696426859498e-7
2008 2008 1.9638832106207543e-6
2009 2008 -8.69476308128136e-7
2008 2009 -8.694763081290522e-7
2009 2009 2.020050208635959e-6
2010 2009 8.681026966210408e-7
2009 2010 8.68102696620331e-7
2010 2010 1.981014849389766e-6
2011 2010 -8.535381721952853e-7
2010 2011 -8.535381721962488e-7
2011 2011 1.99567976991463e-6
2012 2011 8.593345595786038e-7
2011 2012 8.593345595780427e-7
2012 2012 2.025940212924636e-6
2013 2012 8.736248721011117e-7
2012 2013 8.736248721008702e-7
2013 2013 2.0119856974706565e-6
2014 2013 -8.698346543097899e-7
2013 2014 -8.698346543092551e-7
2014 2014 1.991601581754307e-6
2015 2014 -8.537919456514133e-7
2014 2015 -8.537919456518878e-7
2015 2015 2.0175761874758844e-6
2016 2015 8.79215388379835e-7
2015 2016 8.792153883794905e-7
2016 2016 1.944868885624775e-6
2017 2016 8.393434217332396e-7
2016 2017 8.393434217331265e-7
2017 2017 2.009786846201695e-6
2018 2017 8.608680690551458e-7
2017 2018 8.60868069054006e-7
2018 2018 1.9894823874685104e-6
2019 2018 -8.605721051056611e-7
2018 2019 -8.605721051054648e-7
2019 2019 2.0142422507883656e-6
2020 2019 -8.647176859801446e-7
2019 2020 -8.647176859792239e-7
2020 2020 1.9979070814237606e-6
2021 2020 8.524827372594871e-7
2020 2021 8.524827372598326e-7
2021 2021 1.9845011714586297e-6
2022 2021 8.720260823214486e-7
2021 2022 8.720260823212357e-7
2022 2022 1.9749404980006968e-6
2023 2022 -8.58346031896048e-7
2022 2023 -8.583460318956819e-7
2023 2023 2.024316017977174e-6
2024 2023 8.688185013394355e-7
2023 2024 8.688185013395874e-7
2024 2024 1.960846511926263e-6
2025 2024 -8.736569387371681e-7
2024 2025 -8.736569387370263e-7
2025 2025 2.000216766862529e-6
2026 2025 -8.572796949073124e-7
2025 2026 -8.572796949066768e-7
2026 2026 2.003419939820733e-6
2027 2026 8.825344277036484e-7
2026 2027 8.82534427702906e-7
2027 2027 1.9716489954242486e-6
2028 2027 -8.612594938948458e-7
2027 2028 -8.612594938955403e-7
2028 2028 1.995478613476028e-6
2029 2028 8.629023838349483e-7
2028 2029 8.629023838351656e-7
2029 2029 2.0112044608811324e-6
2030 2029 8.633620028803229e-7
2029 2030 8.633620028801745e-7
2030 2030 2.012478817317331e-6
2031 2030 8.736566179188128e-7
2030 2031 8.736566179175957e-7
2031 2031 1.9804451426666918e-6
2032 2031 -8.504605279745015e-7
2031 2032 -8.504605279743765e-7
2032 2032 1.9919160339133903e-6
2033 2032 8.841497301620727e-7
2032 2033 8.841497301625593e-7
2033 2033 2.007274164347717e-6
2034 2033 -8.515600313673218e-7
2033 2034 -8.515600313676153e-7
2034 2034 1.9738686052151144e-6
2035 2034 8.620776159229899e-7
2034 2035 8.620776159232648e-7
2035 2035 1.994729918786801e-6
2036 2035 -8.631966041280899e-7
2035 2036 -8.631966041281268e-7
2036 2036 1.972666470781252e-6
2037 2036 -8.63701403173184e-7
2036 2037 -8.637014031730183e-7
2037 2037 1.990655320331502e-6
2038 2037 -8.642148106222819e-7
2037 2038 -8.642148106231407e-7
2038 2038 1.974901004127095e-6
2039 2038 8.681367723745955e-7
2038 2039 8.681367723739519e-7
2039 2039 1.9733506000197303e-6
2040 2039 -8.504087323688752e-7
2039 2040 -8.504087323687471e-7
2040 2040 1.9933729510548184e-6
2041 2040 -8.548766159543597e-7
2040 2041 -8.548766159551242e-7
2041 2041 1.994445343882515e-6
2042 2041 8.486578256126432e-7
2041 2042 8.486578256120234e-7
2042 2042 1.9780925658554954e-6
2043 2042 -8.428572847907873e-7
2042 2043 -8.428572847917366e-7
2043 2043 2.0533919083342726e-6
2044 2043 -8.741092162431836e-7
2043 2044 -8.741092162430112e-7
2044 2044 1.9746865961918483e-6
2045 2044 -8.617067186633723e-7
2044 2045 -8.617067186616323e-7
2045 2045 1.949257421727684e-6
2046 2045 8.447705316310858e-7
2045 2046 8.44770531630477e-7
2046 2046 2.0152768991071583e-6
2047 2046 -8.655231091094078e-7
2046 2047 -8.655231091088774e-7
2047 2047 1.981546894051668e-6
2048 2047 -8.5245122508218e-7
2047 2048 -8.524512250815011e-7
2048 2048 1.9881664593853566e-6
2049 2048 8.455228196073302e-7
2048 2049 8.455228196086335e-7
2049 2049 2.018406426383007e-6
2050 2049 -8.572432424863933e-7
2049 2050 -8.572432424865958e-7
2050 2050 1.9886459099131505e-6
2051 2050 8.718316431421422e-7
2050 2051 8.718316431422201e-7
2051 2051 1.9988112975962414e-6
2052 2051 8.539919028706637e-7
2051 2052 8.539919028697443e-7
2052 2052 2.0285712692588658e-6
2053 2052 8.57724937014656e-7
2052 2053 8.577249370157858e-7
2053 2053 1.9750338283978425e-6
2054 2053 8.601509684534052e-7
2053 2054 8.601509684543568e-7
2054 2054 1.9736236960002507e-6
2055 2054 8.441437932056588e-7
2054 2055 8.441437932079978e-7
2055 2055 2.0002784367558882e-6
2056 2055 8.720147287922323e-7
2055 2056 8.720147287907419e-7
2056 2056 1.9853374575981434e-6
2057 2056 -8.497272981150456e-7
2056 2057 -8.497272981146691e-7
2057 2057 1.9959866822333044e-6
2058 2057 8.641406815145579e-7
2057 2058 8.641406815150378e-7
2058 2058 2.0217400782770433e-6
2059 2058 -8.589102130967926e-7
2058 2059 -8.58910213096475e-7
2059 2059 2.009442707072255e-6
2060 2059 8.67841859498568e-7
2059 2060 8.678418595001359e-7
2060 2060 1.9855706552482442e-6
2061 2060 -8.595789122406716e-7
2060 2061 -8.595789122394225e-7
2061 2061 2.0523144724544525e-6
2062 2061 -8.569111493933443e-7
2061 2062 -8.569111493928042e-7
2062 2062 2.0138287376057425e-6
2063 2062 8.689445595904198e-7
2062 2063 8.689445595896959e-7
2063 2063 1.9913740065758825e-6
2064 2063 -8.634310705529614e-7
2063 2064 -8.634310705519129e-7
2064 2064 2.016604124851579e-6
2065 2064 -8.583918707795616e-7
2064 2065 -8.583918707801118e-7
2065 2065 1.988304043561919e-6
2066 2065 8.649880382419228e-7
2065 2066 8.649880382416446e-7
2066 2066 2.0395737972737683e-6
2067 2066 8.51550452286158e-7
2066 2067 8.515504522863119e-7
2067 2067 2.0354560662499674e-6
2068 2067 8.537049352979291e-7
2067 2068 8.537049352981018e-7
2068 2068 1.9883855783974447e-6
2069 2068 -8.587189306172322e-7
2068 2069 -8.587189306175615e-7
2069 2069 1.973597253425078e-6
2070 2069 -8.613110140210527e-7
2069 2070 -8.613110140199657e-7
2070 2070 2.014312226701639e-6
2071 2070 8.799577182245692e-7
2070 2071 8.799577182255634e-7
2071 2071 2.021522359384394e-6
2072 2071 -8.528387446580134e-7
2071 2072 -8.528387446578573e-7
2072 2072 2.012015194702532e-6
2073 2072 -8.5452920978586e-7
2072 2073 -8.545292097852019e-7
2073 2073 2.0121228461826447e-6
2074 2073 8.656265025173999e-7
2073 2074 8.656265025179647e-7
2074 2074 2.025210944032963e-6
2075 2074 8.433754219940503e-7
2074 2075 8.433754219943542e-7
2075 2075 1.995266720026093e-6
2076 2075 -8.574500946124537e-7
2075 2076 -8.574500946127122e-7
2076 2076 1.9742849482359854e-6
2077 2076 8.478510432076327e-7
2076 2077 8.47851043207598e-7
2077 2077 2.022728174261432e-6
2078 2077 8.396377627047698e-7
2077 2078 8.396377627047485e-7
2078 2078 1.999921444378041e-6
2079 2078 8.571062761102184e-7
2078 2079 8.571062761109046e-7
2079 2079 2.016862055491519e-6
2080 2079 -8.634372282713219e-7
2079 2080 -8.634372282714502e-7
2080 2080 2.0410220851470597e-6
2081 2080 8.48327011306637e-7
2080 2081 8.483270113077107e-7
2081 2081 2.003315614148542e-6
2082 2081 -8.402198547436159e-7
2081 2082 -8.402198547435369e-7
2082 2082 1.996126800577778e-6
2083 2082 8.597189804089092e-7
2082 2083 8.597189804090359e-7
2083 2083 1.98343001427769e-6
2084 2083 -8.479478373333488e-7
2083 2084 -8.479478373330193e-7
2084 2084 1.9757941998102637e-6
2085 2084 -8.459888357153161e-7
2084 2085 -8.45988835714526e-7
2085 2085 2.0231998449660875e-6
2086 2085 -8.463513144964757e-7
2085 2086 -8.463513144964244e-7
2086 2086 1.975407732582476e-6
2087 2086 -8.675915157242633e-7
2086 2087 -8.675915157231007e-7
2087 2087 1.9867061369609684e-6
2088 2087 8.419911102694499e-7
2087 2088 8.419911102685436e-7
2088 2088 2.0185181180533755e-6
2089 2088 -8.611641120160772e-7
2088 2089 -8.611641120166504e-7
2089 2089 1.97851981631296e-6
2090 2089 -8.418667643909004e-7
2089 2090 -8.41866764390373e-7
2090 2090 1.996625924296231e-6
2091 2090 8.747482292503284e-7
2090 2091 8.747482292494188e-7
2091 2091 2.0112124627287855e-6
2092 2091 8.602193395784888e-7
2091 2092 8.602193395778139e-7
2092 2092 2.032196530162779e-6
2093 2092 8.536365084453588e-7
2092 2093 8.536365084462766e-7
2093 2093 1.9964159297206287e-6
2094 2093 -8.614675015696412e-7
2093 2094 -8.614675015694453e-7
2094 2094 2.0045655922896624e-6
2095 2094 8.564813711972916e-7
2094 2095 8.564813711974729e-7
2095 2095 1.98861641599145e-6
2096 2095 -8.555080449309724e-7
2095 2096 -8.555080449307256e-7
2096 2096 2.017086156042295e-6
2097 2096 -8.600133307283656e-7
2096 2097 -8.600133307275632e-7
2097 2097 2.030144915094706e-6
2098 2097 8.399955440056226e-7
2097 2098 8.39995544006291e-7
2098 2098 2.0012996966562324e-6
2099 2098 8.524122980752575e-7
2098 2099 8.524122980756187e-7
2099 2099 1.990946061176681e-6
2100 2099 8.362130478849409e-7
2099 2100 8.362130478844805e-7
2100 2100 1.9801158600350416e-6
2101 2100 8.562150624642195e-7
2100 2101 8.562150624634302e-7
2101 2101 2.024809992222292e-6
2102 2101 8.56820925941267e-7
2101 2102 8.568209259421214e-7
2102 2102 2.0002465263158267e-6
2103 2102 8.530929437718172e-7
2102 2103 8.530929437710792e-7
2103 2103 1.995843095756088e-6
2104 2103 -8.523024888253561e-7
2103 2104 -8.523024888256913e-7
2104 2104 1.9881420409522756e-6
2105 2104 8.260511160706845e-7
2104 2105 8.260511160710491e-7
2105 2105 2.009304314613621e-6
2106 2105 8.591111135592488e-7
2105 2106 8.591111135594069e-7
2106 2106 2.006004021053138e-6
2107 2106 8.37865868014031e-7
2106 2107 8.378658680157343e-7
2107 2107 1.9869287027616267e-6
2108 2107 8.413272791132097e-7
2107 2108 8.413272791136813e-7
2108 2108 1.9951391259610467e-6
2109 2108 8.616322207729069e-7
2108 2109 8.616322207733468e-7
2109 2109 2.0043455295298004e-6
2110 2109 -8.586911562111461e-7
2109 2110 -8.586911562106509e-7
2110 2110 1.999368736924447e-6
2111 2110 8.486537095898425e-7
2110 2111 8.486537095897961e-7
2111 2111 1.9987290760166845e-6
2112 2111 -8.350870850801978e-7
2111 2112 -8.350870850805127e-7
2112 2112 1.9973174942775774e-6
2113 2112 8.525673009428819e-7
2112 2113 8.525673009425417e-7
2113 2113 2.0171793971413186e-6
2114 2113 -8.447286166463871e-7
2113 2114 -8.447286166473618e-7
2114 2114 1.9979421825125454e-6
2115 2114 8.630269406147796e-7
2114 2115 8.630269406141285e-7
2115 2115 1.9884081226444776e-6
2116 2115 -8.366648154964214e-7
2115 2116 -8.36664815497298e-7
2116 2116 2.0397384460341334e-6
2117 2116 -8.608465454365136e-7
2116 2117 -8.608465454362382e-7
2117 2117 1.981720002090991e-6
2118 2117 8.294218066221098e-7
2117 2118 8.294218066209103e-7
2118 2118 2.0447544932233256e-6
2119 2118 8.654204044072229e-7
2118 2119 8.654204044077434e-7
2119 2119 1.9976257166158966e-6
2120 2119 -8.372112463860006e-7
2119 2120 -8.372112463867707e-7
2120 2120 2.010639601611065e-6
2121 2120 8.597950069129443e-7
2120 2121 8.597950069126005e-7
2121 2121 1.9973186764738013e-6
2122 2121 8.319652356207393e-7
2121 2122 8.319652356210668e-7
2122 2122 1.9919574809228077e-6
2123 2122 8.72223696249574e-7
2122 2123 8.722236962491053e-7
2123 2123 2.0003571766334265e-6
2124 2123 -8.336635802041874e-7
2123 2124 -8.336635802042012e-7
2124 2124 1.991905199330953e-6
2125 2124 8.493247900322555e-7
2124 2125 8.493247900316473e-7
2125 2125 1.99527209622362e-6
2126 2125 8.270899138313905e-7
2125 2126 8.270899138311293e-7
2126 2126 2.004915141686818e-6
2127 2126 -8.491466586584875e-7
2126 2127 -8.491466586577683e-7
2127 2127 2.013560929836468e-6
2128 2127 8.453615061027193e-7
2127 2128 8.453615061031146e-7
2128 2128 1.9898514346657713e-6
2129 2128 -8.396314124252588e-7
2128 2129 -8.396314124252385e-7
2129 2129 2.002411740652299e-6
2130 2129 8.247439341765203e-7
2129 2130 8.247439341752271e-7
2130 2130 1.9775790651514864e-6
2131 2130 8.481121229651268e-7
2130 2131 8.481121229644379e-7
2131 2131 2.0250288426332028e-6
2132 2131 8.434279805643341e-7
2131 2132 8.434279805638035e-7
2132 2132 1.9968222574259325e-6
2133 2132 8.519449382767021e-7
2132 2133 8.519449382768104e-7
2133 2133 2.0274568579436046e-6
2134 2133 8.449894399474264e-7
2133 2134 8.449894399476191e-7
2134 2134 2.005399805437624e-6
2135 2134 8.537749759794945e-7
2134 2135 8.53774975979136e-7
2135 2135 1.973879078438551e-6
2136 2135 -8.469838317694401e-7
2135 2136 -8.469838317693206e-7
2136 2136 1.9912460886851205e-6
2137 2136 8.352745725410155e-7
2136 2137 8.352745725411687e-7
2137 2137 2.0016526467183523e-6
2138 2137 8.597144322321727e-7
2137 2138 8.597144322321519e-7
2138 2138 1.9882191156677447e-6
2139 2138 -8.329483716193252e-7
2138 2139 -8.329483716197916e-7
2139 2139 2.001818401150656e-6
2140 2139 -8.492684882740105e-7
2139 2140 -8.492684882724179e-7
2140 2140 2.017551753030356e-6
2141 2140 8.65890857481761e-7
2140 2141 8.658908574820638e-7
2141 2141 1.9891757238225864e-6
2142 2141 8.390299358920541e-7
2141 2142 8.390299358931306e-7
2142 2142 2.0042270050555266e-6
2143 2142 -8.497461910805529e-7
2142 2143 -8.497461910794153e-7
2143 2143 1.9877199933603613e-6
2144 2143 -8.458644323388528e-7
2143 2144 -8.458644323390547e-7
2144 2144 1.985625042388897e-6
2145 2144 -8.486012698757776e-7
2144 2145 -8.486012698757575e-7
2145 2145 2.0183310618743194e-6
2146 2145 -8.53055452546468e-7
2145 2146 -8.530554525466581e-7
2146 2146 1.9878915965298285e-6
2147 2146 -8.392854546882235e-7
2146 2147 -8.392854546891772e-7
2147 2147 1.99407247469553e-6
2148 2147 8.498732626400327e-7
2147 2148 8.498732626390854e-7
2148 2148 2.019829552014004e-6
2149 2148 8.270223959245763e-7
2148 2149 8.270223959234187e-7
2149 2149 1.978686835046064e-6
2150 2149 8.503446454767303e-7
2149 2150 8.503446454773798e-7
2150 2150 1.9876686617976973e-6
2151 2150 -8.63766591133156e-7
2150 2151 -8.63766591133561e-7
2151 2151 1.973664244936703e-6
2152 2151 -8.409156656581535e-7
2151 2152 -8.409156656585343e-7
2152 2152 2.0136390342275745e-6
2153 2152 8.556455705442976e-7
2152 2153 8.556455705439222e-7
2153 2153 1.9709916683224588e-6
2154 2153 8.442027344072608e-7
2153 2154 8.442027344076206e-7
2154 2154 2.0220429053368993e-6
2155 2154 8.532611677218683e-7
2154 2155 8.532611677217187e-7
2155 2155 1.9868554720739606e-6
2156 2155 8.29759743315114e-7
2155 2156 8.297597433145347e-7
2156 2156 1.972976013686193e-6
2157 2156 -8.357801038538231e-7
2156 2157 -8.35780103854513e-7
2157 2157 1.9553669034084345e-6
2158 2157 -8.458620379047055e-7
2157 2158 -8.458620379048529e-7
2158 2158 2.0312696672547622e-6
2159 2158 8.286897497047833e-7
2158 2159 8.286897497047835e-7
2159 2159 1.9794701226529503e-6
2160 2159 -8.35483517080353e-7
2159 2160 -8.354835170796869e-7
2160 2160 1.9851756257212935e-6
2161 2160 8.398512974507511e-7
2160 2161 8.398512974520845e-7
2161 2161 1.9598556679524634e-6
2162 2161 8.497331763427693e-7
2161 2162 8.497331763428672e-7
2162 2162 2.0151593314002702e-6
2163 2162 8.201093097910425e-7
2162 2163 8.201093097911105e-7
2163 2163 1.9824663007036076e-6
2164 2163 -8.453549877055856e-7
2163 2164 -8.453549877048674e-7
2164 2164 1.9834280477817137e-6
2165 2164 -8.473026293515104e-7
2164 2165 -8.473026293513783e-7
2165 2165 2.0270788619273307e-6
2166 2165 -8.320036771708855e-7
2165 2166 -8.320036771711904e-7
2166 2166 2.006556128547668e-6
2167 2166 -8.311890542511001e-7
2166 2167 -8.311890542510252e-7
2167 2167 1.9975531520475038e-6
2168 2167 8.443055047469061e-7
2167 2168 8.443055047463044e-7
2168 2168 2.0161261682960762e-6
2169 2168 8.525624071872193e-7
2168 2169 8.525624071866218e-7
2169 2169 1.9780506982081624e-6
2170 2169 -8.510259651806314e-7
2169 2170 -8.510259651811705e-7
2170 2170 1.9918173494699985e-6
2171 2170 -8.199934993453792e-7
2170 2171 -8.199934993449113e-7
2171 2171 1.9652021326112274e-6
2172 2171 8.475177403556159e-7
2171 2172 8.475177403556319e-7
2172 2172 2.0313312788289336e-6
2173 2172 -8.384460195176901e-7
2172 2173 -8.384460195174391e-7
2173 2173 2.010190341089179e-6
2174 2173 8.508337420774901e-7
2173 2174 8.508337420776894e-7
2174 2174 1.984289769572283e-6
2175 2174 -8.376648127735652e-7
2174 2175 -8.3766481277349e-7
2175 2175 2.0050336611871505e-6
2176 2175 -8.525941027365588e-7
2175 2176 -8.52594102735953e-7
2176 2176 1.99863661456098e-6
2177 2176 -8.313638657825238e-7
2176 2177 -8.313638657833295e-7
2177 2177 2.0171821674670338e-6
2178 2177 8.478346221621871e-7
2177 2178 8.478346221613761e-7
2178 2178 2.0118871121820985e-6
2179 2178 8.410621044168431e-7
2178 2179 8.410621044177915e-7
2179 2179 1.9762335260756927e-6
2180 2179 -8.543808154462557e-7
2179 2180 -8.543808154461588e-7
2180 2180 2.0266459687905503e-6
2181 2180 -8.292014708529454e-7
2180 2181 -8.292014708515853e-7
2181 2181 2.0031859870869075e-6
2182 2181 -8.483570497320001e-7
2181 2182 -8.483570497327097e-7
2182 2182 1.9994108835244655e-6
2183 2182 -8.33915970015695e-7
2182 2183 -8.339159700151712e-7
2183 2183 2.0053665795552194e-6
2184 2183 8.423265388498702e-7
2183 2184 8.423265388506996e-7
2184 2184 2.0326673929738553e-6
2185 2184 -8.410705576539116e-7
2184 2185 -8.410705576542527e-7
2185 2185 2.0175191375540684e-6
2186 2185 8.260948070915113e-7
2185 2186 8.260948070906524e-7
2186 2186 1.985847124907501e-6
2187 2186 -8.424912712704652e-7
2186 2187 -8.42491271269924e-7
2187 2187 1.990882474834198e-6
2188 2187 8.395466531525708e-7
2187 2188 8.395466531530666e-7
2188 2188 2.0414068954610673e-6
2189 2188 -8.261844961556308e-7
2188 2189 -8.261844961555432e-7
2189 2189 1.992265636431945e-6
2190 2189 8.48581983228912e-7
2189 2190 8.485819832289532e-7
2190 2190 2.0067032370411573e-6
2191 2190 8.36330854955365e-7
2190 2191 8.363308549557324e-7
2191 2191 1.9885347884621777e-6
2192 2191 8.184512985989694e-7
2191 2192 8.184512985987761e-7
2192 2192 2.0088700259750463e-6
2193 2192 -8.37549716711975e-7
2192 2193 -8.375497167125722e-7
2193 2193 1.9924982106067065e-6
2194 2193 -8.410301860959326e-7
2193 2194 -8.410301860955014e-7
2194 2194 1.989214426351768e-6
2195 2194 -8.247134970986793e-7
2194 2195 -8.247134970986979e-7
2195 2195 1.9928816889249736e-6
2196 2195 8.274760183086998e-7
2195 2196 8.274760183081291e-7
2196 2196 1.984714550458459e-6
2197 2196 -8.248748911806168e-7
2196 2197 -8.248748911799473e-7
2197 2197 2.0204868065899764e-6
2198 2197 -8.41087685906688e-7
2197 2198 -8.410876859073743e-7
2198 2198 2.0117134635285646e-6
2199 2198 -8.344509810563981e-7
2198 2199 -8.344509810562154e-7
2199 2199 2.009347832059949e-6
2200 2199 -8.241414723441794e-7
2199 2200 -8.24141472345247e-7
2200 2200 2.0015164946895625e-6
2201 2200 8.18579642687478e-7
2200 2201 8.185796426889015e-7
2201 2201 2.009687752748653e-6
2202 2201 8.388597134636137e-7
2201 2202 8.388597134633729e-7
2202 2202 2.002480507004001e-6
2203 2202 -8.394980932254294e-7
2202 2203 -8.39498093225456e-7
2203 2203 2.002159765058836e-6
2204 2203 8.228145511536551e-7
2203 2204 8.228145511539083e-7
2204 2204 2.025870185356523e-6
2205 2204 -8.383251488520575e-7
2204 2205 -8.383251488515463e-7
2205 2205 2.002160171413536e-6
2206 2205 -8.501516985474201e-7
2205 2206 -8.501516985487122e-7
2206 2206 2.004636212366549e-6
2207 2206 -8.154152798672742e-7
2206 2207 -8.154152798673408e-7
2207 2207 2.018998076318526e-6
2208 2207 -8.405526233808583e-7
2207 2208 -8.40552623380143e-7
2208 2208 2.003171866100028e-6
2209 2208 -8.396545868281004e-7
2208 2209 -8.396545868285931e-7
2209 2209 2.0017885968706315e-6
2210 2209 -8.434966623636008e-7
2209 2210 -8.434966623634646e-7
2210 2210 2.0325445704205685e-6
2211 2210 -8.349295726132152e-7
2210 2211 -8.34929572613689e-7
2211 2211 1.9794202519622844e-6
2212 2211 -8.196010917662619e-7
2211 2212 -8.196010917656984e-7
2212 2212 2.0130632343126416e-6
2213 2212 8.417681197889703e-7
2212 2213 8.417681197900731e-7
2213 2213 2.005159197284692e-6
2214 2213 -8.352626182197185e-7
2213 2214 -8.352626182205881e-7
2214 2214 1.9967989455976258e-6
2215 2214 -8.261798291239253e-7
2214 2215 -8.261798291240859e-7
2215 2215 2.0134337554909164e-6
2216 2215 -8.39134845567174e-7
2215 2216 -8.391348455663287e-7
2216 2216 2.0025042833086777e-6
2217 2216 -8.312363281163468e-7
2216 2217 -8.312363281171091e-7
2217 2217 1.9844631769411794e-6
2218 2217 -8.235903658026239e-7
2217 2218 -8.235903658030707e-7
2218 2218 2.0083114444181093e-6
2219 2218 -8.301775192947984e-7
2218 2219 -8.301775192941602e-7
2219 2219 1.990036698348133e-6
2220 2219 -8.385977448551867e-7
2219 2220 -8.385977448562652e-7
2220 2220 1.991732927190206e-6
2221 2220 -8.427517208032364e-7
2220 2221 -8.427517208023954e-7
2221 2221 2.0118919700778208e-6
2222 2221 8.164392988090814e-7
2221 2222 8.164392988092505e-7
2222 2222 1.9743333636272257e-6
2223 2222 8.238260000513101e-7
2222 2223 8.23826000052101e-7
2223 2223 1.979505511793183e-6
2224 2223 -8.3546868051853e-7
2223 2224 -8.354686805181421e-7
2224 2224 2.010918208988559e-6
2225 2224 -8.239889564122661e-7
2224 2225 -8.239889564121503e-7
2225 2225 2.0047239008735518e-6
2226 2225 -8.267047140941772e-7
2225 2226 -8.267047140951001e-7
2226 2226 1.992578094386873e-6
2227 2226 8.131472229416811e-7
2226 2227 8.131472229424096e-7
2227 2227 2.0126489754715186e-6
2228 2227 8.262432177116496e-7
2227 2228 8.262432177122727e-7
2228 2228 2.0100278415340703e-6
2229 2228 -8.269376267882535e-7
2228 2229 -8.269376267887916e-7
2229 2229 1.975942242167762e-6
2230 2229 8.278175755552018e-7
2229 2230 8.278175755545162e-7
2230 2230 1.9946600931958625e-6
2231 2230 8.332123185172989e-7
2230 2231 8.332123185171849e-7
2231 2231 2.0244346816057895e-6
2232 2231 8.247437512928689e-7
2231 2232 8.247437512930224e-7
2232 2232 2.0016142389955316e-6
2233 2232 -8.526224467867828e-7
2232 2233 -8.526224467876757e-7
2233 2233 1.976857837974927e-6
2234 2233 -8.493750143779706e-7
2233 2234 -8.493750143776444e-7
2234 2234 1.9846506240831366e-6
2235 2234 8.318387094908412e-7
2234 2235 8.318387094903002e-7
2235 2235 1.997019369748312e-6
2236 2235 8.248645512544418e-7
2235 2236 8.248645512552656e-7
2236 2236 1.9800046678682657e-6
2237 2236 8.429290907866753e-7
2236 2237 8.429290907872376e-7
2237 2237 2.0230817646112855e-6
2238 2237 8.318213435512176e-7
2237 2238 8.318213435505803e-7
2238 2238 1.985233473567607e-6
2239 2238 -8.356503583711834e-7
2238 2239 -8.356503583718814e-7
2239 2239 1.995823008151603e-6
2240 2239 8.387391090877973e-7
2239 2240 8.387391090874871e-7
2240 2240 1.973116434782451e-6
2241 2240 -8.38791232945215e-7
2240 2241 -8.387912329448375e-7
2241 2241 1.9922445839197188e-6
2242 2241 -8.24139750524651e-7
2241 2242 -8.241397505242985e-7
2242 2242 1.987798215734925e-6
2243 2242 -8.225856207865443e-7
2242 2243 -8.22585620786108e-7
2243 2243 2.0002612343508054e-6
2244 2243 -8.286527030327245e-7
2243 2244 -8.286527030327707e-7
2244 2244 1.9922321025886324e-6
2245 2244 -8.287020528957183e-7
2244 2245 -8.287020528953432e-7
2245 2245 1.981300942791127e-6
2246 2245 -8.138610067717438e-7
2245 2246 -8.138610067718466e-7
2246 2246 2.00333769246594e-6
2247 2246 8.064528343029133e-7
2246 2247 8.0645283430232e-7
2247 2247 2.016144501708205e-6
2248 2247 -8.192021668255279e-7
2247 2248 -8.192021668257983e-7
2248 2248 1.9957240091023122e-6
2249 2248 8.367678134021709e-7
2248 2249 8.367678134018896e-7
2249 2249 2.0109961449363313e-6
2250 2249 -8.30334613798522e-7
2249 2250 -8.303346137984089e-7
2250 2250 2.036811483712537e-6
2251 2250 8.303300124623428e-7
2250 2251 8.303300124636408e-7
2251 2251 2.002451511783404e-6
2252 2251 8.303175800320014e-7
2251 2252 8.303175800323666e-7
2252 2252 1.9739647090767216e-6
2253 2252 8.341135522043738e-7
2252 2253 8.341135522047745e-7
2253 2253 2.002629124079337e-6
2254 2253 -8.164791861717383e-7
2253 2254 -8.164791861720483e-7
2254 2254 1.9922113526683326e-6
2255 2254 -8.192850906069219e-7
2254 2255 -8.192850906072304e-7
2255 2255 1.967003359537247e-6
2256 2255 -8.267131922910227e-7
2255 2256 -8.267131922905255e-7
2256 2256 2.0052143610709748e-6
2257 2256 8.091458314958087e-7
2256 2257 8.091458314941681e-7
2257 2257 2.0149741353330267e-6
2258 2257 8.139948162293232e-7
2257 2258 8.139948162297863e-7
2258 2258 1.9947046567560566e-6
2259 2258 8.262192013754545e-7
2258 2259 8.262192013751037e-7
2259 2259 1.9834404285879066e-6
2260 2259 8.133875545195125e-7
2259 2260 8.133875545189379e-7
2260 2260 1.985840746124517e-6
2261 2260 8.263115541391129e-7
2260 2261 8.263115541389125e-7
2261 2261 2.0510692775068933e-6
2262 2261 8.211995859710035e-7
2261 2262 8.211995859711891e-7
2262 2262 2.0032396185459204e-6
2263 2262 -8.179072111900571e-7
2262 2263 -8.179072111900224e-7
2263 2263 1.996606412213793e-6
2264 2263 8.121551336159459e-7
2263 2264 8.121551336146417e-7
2264 2264 1.9935532543399502e-6
2265 2264 8.516828307896337e-7
2264 2265 8.516828307893099e-7
2265 2265 2.030398844239024e-6
2266 2265 8.226755596193378e-7
2265 2266 8.226755596202758e-7
2266 2266 1.9827543024530118e-6
2267 2266 8.373365149595159e-7
2266 2267 8.373365149605137e-7
2267 2267 1.9940589032311432e-6
2268 2267 -8.194178138181308e-7
2267 2268 -8.194178138187466e-7
2268 2268 1.9942085147240527e-6
2269 2268 8.284467928627067e-7
2268 2269 8.28446792862434e-7
2269 2269 2.008047510191398e-6
2270 2269 8.175132561400054e-7
2269 2270 8.175132561407584e-7
2270 2270 1.9966503023008655e-6
2271 2270 -8.348433879328805e-7
2270 2271 -8.34843387932208e-7
2271 2271 2.0313597953889767e-6
2272 2271 -8.244806979974004e-7
2271 2272 -8.244806979973625e-7
2272 2272 1.980295578329854e-6
2273 2272 -8.384709033775565e-7
2272 2273 -8.384709033776868e-7
2273 2273 2.0168214151171156e-6
2274 2273 -8.053825164734679e-7
2273 2274 -8.05382516473817e-7
2274 2274 1.979614125719405e-6
2275 2274 -8.405089804182637e-7
2274 2275 -8.405089804181027e-7
2275 2275 1.9994875018753344e-6
2276 2275 -8.346657038184059e-7
2275 2276 -8.346657038178982e-7
2276 2276 2.0280218806147224e-6
2277 2276 -8.269775372058196e-7
2276 2277 -8.269775372065845e-7
2277 2277 2.0056978004037994e-6
2278 2277 -8.263339614824108e-7
2277 2278 -8.263339614823822e-7
2278 2278 1.9925457146300756e-6
2279 2278 -8.220758903604916e-7
2278 2279 -8.220758903605643e-7
2279 2279 1.9905124105347753e-6
2280 2279 8.161387879567189e-7
2279 2280 8.161387879559103e-7
2280 2280 2.0352727740521378e-6
2281 2280 8.210014139702277e-7
2280 2281 8.210014139698125e-7
2281 2281 1.9770542169535465e-6
2282 2281 8.267107568543468e-7
2281 2282 8.26710756853772e-7
2282 2282 1.998410676329735e-6
2283 2282 -8.271073662721944e-7
2282 2283 -8.271073662712092e-7
2283 2283 1.967617900954433e-6
2284 2283 -8.242457635843665e-7
2283 2284 -8.242457635840368e-7
2284 2284 1.9879439927699474e-6
2285 2284 -8.214024584718815e-7
2284 2285 -8.214024584726188e-7
2285 2285 2.002933923116594e-6
2286 2285 -8.186331895392559e-7
2285 2286 -8.18633189537388e-7
2286 2286 1.989260797481308e-6
2287 2286 -8.135438935252231e-7
2286 2287 -8.135438935260384e-7
2287 2287 1.985606470848996e-6
2288 2287 8.340302166724982e-7
2287 2288 8.340302166713669e-7
2288 2288 2.0066968283692065e-6
2289 2288 -8.075118651042431e-7
2288 2289 -8.075118651041681e-7
2289 2289 2.0040276327904237e-6
2290 2289 8.130888463320996e-7
2289 2290 8.130888463312788e-7
2290 2290 1.9364623098303332e-6
2291 2290 -8.313680779121136e-7
2290 2291 -8.313680779119677e-7
2291 2291 2.0149803633973675e-6
2292 2291 -8.261412746268213e-7
2291 2292 -8.26141274626758e-7
2292 2292 1.9839675960681423e-6
2293 2292 8.009378457958811e-7
2292 2293 8.00937845796449e-7
2293 2293 2.0140651807974805e-6
2294 2293 8.286385225444541e-7
2293 2294 8.286385225447001e-7
2294 2294 2.015172764963676e-6
2295 2294 -8.184357919325611e-7
2294 2295 -8.184357919323338e-7
2295 2295 2.007695463486688e-6
2296 2295 8.413653196384471e-7
2295 2296 8.413653196376046e-7
2296 2296 2.0241219825903453e-6
2297 2296 8.046231470557106e-7
2296 2297 8.046231470551512e-7
2297 2297 1.993325973893799e-6
2298 2297 -8.044375379455326e-7
2297 2298 -8.044375379458701e-7
2298 2298 1.9873791727809877e-6
2299 2298 -8.305557749975915e-7
2298 2299 -8.30555774998139e-7
2299 2299 1.9927579198317064e-6
2300 2299 -8.239379767377536e-7
2299 2300 -8.239379767378324e-7
2300 2300 2.0087670673906315e-6
2301 2300 8.149817203426014e-7
2300 2301 8.14981720342602e-7
2301 2301 1.9869235428917813e-6
2302 2301 -8.079186021209209e-7
2301 2302 -8.079186021211315e-7
2302 2302 1.996601135889108e-6
2303 2302 -8.077381410724809e-7
2302 2303 -8.077381410716914e-7
2303 2303 2.0105186781531586e-6
2304 2303 -8.180864497114049e-7
2303 2304 -8.180864497116567e-7
2304 2304 2.001213307702465e-6
2305 2304 8.205266282796304e-7
2304 2305 8.205266282785257e-7
2305 2305 2.005104962419345e-6
2306 2305 -8.024437137036721e-7
2305 2306 -8.024437137040177e-7
2306 2306 1.9824142918988736e-6
2307 2306 -8.330357968191536e-7
2306 2307 -8.330357968181948e-7
2307 2307 2.0009793750239484e-6
2308 2307 -7.972971922911316e-7
2307 2308 -7.972971922915304e-7
2308 2308 1.9992067324468244e-6
2309 2308 8.219442032512642e-7
2308 2309 8.219442032501376e-7
2309 2309 2.0341256847013426e-6
2310 2309 -8.138964441891561e-7
2309 2310 -8.138964441894751e-7
2310 2310 2.0033965724506868e-6
2311 2310 -8.212721587969801e-7
2310 2311 -8.212721587969735e-7
2311 2311 1.9871242623505735e-6
2312 2311 -8.056881245554984e-7
2311 2312 -8.056881245554992e-7
2312 2312 2.022984989835431e-6
2313 2312 -7.915954743688304e-7
2312 2313 -7.915954743691502e-7
2313 2313 2.025824487711823e-6
2314 2313 -8.313004048897593e-7
2313 2314 -8.313004048901026e-7
2314 2314 2.003914110348548e-6
2315 2314 8.080374033703867e-7
2314 2315 8.08037403370035e-7
2315 2315 2.028247540629613e-6
2316 2315 8.207736267513382e-7
2315 2316 8.207736267528711e-7
2316 2316 2.018100566449538e-6
2317 2316 8.000336603794352e-7
2316 2317 8.000336603794878e-7
2317 2317 1.9820656403879643e-6
2318 2317 -8.014003537783547e-7
2317 2318 -8.014003537778329e-7
2318 2318 2.0272875998320693e-6
2319 2318 8.047377535557974e-7
2318 2319 8.047377535555433e-7
2319 2319 1.9975517800622317e-6
2320 2319 8.239038978519341e-7
2319 2320 8.239038978515198e-7
2320 2320 1.9906435587859355e-6
2321 2320 8.073083929339072e-7
2320 2321 8.073083929340762e-7
2321 2321 2.0149701135784232e-6
2322 2321 -8.129910659351764e-7
2321 2322 -8.129910659345978e-7
2322 2322 1.9933598749646657e-6
2323 2322 8.214039392711209e-7
2322 2323 8.214039392700992e-7
2323 2323 1.994873334995072e-6
2324 2323 -8.043140031969736e-7
2323 2324 -8.043140031978032e-7
2324 2324 1.9820475703062746e-6
2325 2324 -8.186115660413355e-7
2324 2325 -8.186115660410589e-7
2325 2325 1.990685073628225e-6
2326 2325 8.109253318419037e-7
2325 2326 8.109253318424754e-7
2326 2326 2.0429705021910577e-6
2327 2326 -8.154000209087929e-7
2326 2327 -8.154000209083394e-7
2327 2327 1.9822274823586247e-6
2328 2327 7.893597751307464e-7
2327 2328 7.893597751320819e-7
2328 2328 2.0198342211654163e-6
2329 2328 8.052265521867187e-7
2328 2329 8.052265521870278e-7
2329 2329 2.0266310144615316e-6
2330 2329 -8.051475541483967e-7
2329 2330 -8.051475541472392e-7
2330 2330 2.001129268962763e-6
2331 2330 -8.026703113506041e-7
2330 2331 -8.026703113497019e-7
2331 2331 2.0181938219799654e-6
2332 2331 -8.222791539396701e-7
2331 2332 -8.222791539401027e-7
2332 2332 2.0081729916764342e-6
2333 2332 8.076581054720493e-7
2332 2333 8.076581054723999e-7
2333 2333 1.9747762995393497e-6
2334 2333 -8.109815717103332e-7
2333 2334 -8.109815717101836e-7
2334 2334 2.0118609983596395e-6
2335 2334 -8.20230945505056e-7
2334 2335 -8.202309455047522e-7
2335 2335 2.010698769558963e-6
2336 2335 8.104255687222425e-7
2335 2336 8.104255687228852e-7
2336 2336 1.9681031123970553e-6
2337 2336 8.137634117480094e-7
2336 2337 8.137634117486432e-7
2337 2337 2.0269794616368427e-6
2338 2337 -8.131769810682095e-7
2337 2338 -8.131769810689559e-7
2338 2338 1.9830087796902223e-6
2339 2338 -8.433020369520217e-7
2338 2339 -8.433020369518448e-7
2339 2339 1.99777635490706e-6
2340 2339 -8.047510989947159e-7
2339 2340 -8.047510989949741e-7
2340 2340 2.0208679026529843e-6
2341 2340 -8.087886436145589e-7
2340 2341 -8.087886436153805e-7
2341 2341 1.977951442138537e-6
2342 2341 -8.218117647223625e-7
2341 2342 -8.218117647228193e-7
2342 2342 1.977887697718455e-6
2343 2342 -8.040452896241753e-7
2342 2343 -8.040452896253832e-7
2343 2343 2.0078163029946104e-6
2344 2343 -8.405878239315006e-7
2343 2344 -8.405878239314473e-7
2344 2344 2.0143427698359812e-6
2345 2344 -8.112073942927254e-7
2344 2345 -8.112073942932002e-7
2345 2345 1.9863280347656028e-6
2346 2345 -8.014326331518538e-7
2345 2346 -8.014326331520362e-7
2346 2346 1.984458735668724e-6
2347 2346 -8.039235111526234e-7
2346 2347 -8.03923511152457e-7
2347 2347 1.995938678780176e-6
2348 2347 -8.101837805911672e-7
2347 2348 -8.101837805908356e-7
2348 2348 2.0101595975827457e-6
2349 2348 -8.18461348152386e-7
2348 2349 -8.184613481518582e-7
2349 2349 2.0047022951941336e-6
2350 2349 8.043046274518578e-7
2349 2350 8.043046274527361e-7
2350 2350 2.02610404848772e-6
2351 2350 8.116683557551337e-7
2350 2351 8.116683557550346e-7
2351 2351 1.967422563815601e-6
2352 2351 8.253664123824002e-7
2351 2352 8.253664123826051e-7
2352 2352 1.95864445244866e-6
2353 2352 -8.005748192441419e-7
2352 2353 -8.005748192445015e-7
2353 2353 1.999952709853412e-6
2354 2353 -7.947466087118219e-7
2353 2354 -7.9474660871059e-7
2354 2354 1.960488487132064e-6
2355 2354 -8.004691063137934e-7
2354 2355 -8.004691063136123e-7
2355 2355 1.9813325800875536e-6
2356 2355 7.959556411043636e-7
2355 2356 7.959556411037318e-7
2356 2356 1.9970935463004244e-6
2357 2356 8.21288081837546e-7
2356 2357 8.212880818364639e-7
2357 2357 2.021135531668232e-6
2358 2357 -8.156157780712582e-7
2357 2358 -8.156157780706506e-7
2358 2358 1.993403654744809e-6
2359 2358 -8.017358434880473e-7
2358 2359 -8.017358434880003e-7
2359 2359 1.992377665833451e-6
2360 2359 -8.012761682111196e-7
2359 2360 -8.012761682113716e-7
2360 2360 2.005308284601524e-6
2361 2360 8.211980478935358e-7
2360 2361 8.211980478937871e-7
2361 2361 2.002491723837536e-6
2362 2361 7.958091578759351e-7
2361 2362 7.958091578752096e-7
2362 2362 2.004360980056868e-6
2363 2362 7.907934734967134e-7
2362 2363 7.907934734969149e-7
2363 2363 1.983587126592229e-6
2364 2363 -7.938672786555656e-7
2363 2364 -7.938672786561178e-7
2364 2364 1.969546241860007e-6
2365 2364 8.073120775963e-7
2364 2365 8.073120775956047e-7
2365 2365 1.9854575413203164e-6
2366 2365 -8.240277846285003e-7
2365 2366 -8.240277846289023e-7
2366 2366 2.008296147012313e-6
2367 2366 7.872213516297289e-7
2366 2367 7.872213516303512e-7
2367 2367 1.9771367062404752e-6
2368 2367 8.05438366533292e-7
2367 2368 8.054383665339175e-7
2368 2368 1.9752968333814175e-6
2369 2368 8.153685884302643e-7
2368 2369 8.153685884307705e-7
2369 2369 1.9883417313636977e-6
2370 2369 -8.118782007352986e-7
2369 2370 -8.118782007359828e-7
2370 2370 1.9873875222802164e-6
2371 2370 8.005882716964056e-7
2370 2371 8.005882716963495e-7
2371 2371 1.9978821171783227e-6
2372 2371 8.084097483405145e-7
2371 2372 8.084097483405262e-7
2372 2372 2.015785738044507e-6
2373 2372 -8.066908092121839e-7
2372 2373 -8.066908092127212e-7
2373 2373 2.0397155554157538e-6
2374 2373 8.084215339950141e-7
2373 2374 8.084215339968074e-7
2374 2374 2.0240628536984274e-6
2375 2374 8.086555453391864e-7
2374 2375 8.086555453386183e-7
2375 2375 2.0258012209905524e-6
2376 2375 -8.058591481517835e-7
2375 2376 -8.058591481507325e-7
2376 2376 1.9845840688834827e-6
2377 2376 -8.197389548584455e-7
2376 2377 -8.197389548579011e-7
2377 2377 1.978028659513359e-6
2378 2377 8.013613599449309e-7
2377 2378 8.013613599445491e-7
2378 2378 1.988805883250782e-6
2379 2378 -8.033270980957349e-7
2378 2379 -8.033270980955847e-7
2379 2379 2.0295020626974193e-6
2380 2379 8.046506270032283e-7
2379 2380 8.046506270036829e-7
2380 2380 1.9860151938405054e-6
2381 2380 -8.048454800808958e-7
2380 2381 -8.048454800808344e-7
2381 2381 2.001930192479563e-6
2382 2381 -7.990031826973333e-7
2381 2382 -7.990031826972797e-7
2382 2382 2.0284154828750794e-6
2383 2382 7.997701300044115e-7
2382 2383 7.997701300054087e-7
2383 2383 2.0370309782568336e-6
2384 2383 -7.921414646267269e-7
2383 2384 -7.921414646251987e-7
2384 2384 2.0450702391086708e-6
2385 2384 -7.933873751769971e-7
2384 2385 -7.93387375177005e-7
2385 2385 1.960487693711246e-6
2386 2385 8.087590982158635e-7
2385 2386 8.087590982153662e-7
2386 2386 2.050274556222091e-6
2387 2386 8.064311973205652e-7
2386 2387 8.064311973214638e-7
2387 2387 2.008612688327441e-6
2388 2387 -8.061867638260867e-7
2387 2388 -8.061867638262761e-7
2388 2388 2.010552701397921e-6
2389 2388 8.120193366456861e-7
2388 2389 8.120193366449086e-7
2389 2389 2.0210725454107223e-6
2390 2389 7.876508237069661e-7
2389 2390 7.876508237064404e-7
2390 2390 1.999359480042696e-6
2391 2390 8.008891969085063e-7
2390 2391 8.008891969085692e-7
2391 2391 1.995233578020764e-6
2392 2391 8.008810900762739e-7
2391 2392 8.008810900768364e-7
2392 2392 1.9942414075426693e-6
2393 2392 7.910212423738308e-7
2392 2393 7.91021242372997e-7
2393 2393 2.012932202881838e-6
2394 2393 7.998200719919132e-7
2393 2394 7.998200719920705e-7
2394 2394 1.975238793222198e-6
2395 2394 8.045875598819361e-7
2394 2395 8.045875598822999e-7
2395 2395 1.960508135947067e-6
2396 2395 -8.140219692636604e-7
2395 2396 -8.140219692634059e-7
2396 2396 2.0163167864415432e-6
2397 2396 -8.068754453903569e-7
2396 2397 -8.068754453898347e-7
2397 2397 1.988066991228426e-6
2398 2397 8.00581706572734e-7
2397 2398 8.005817065729279e-7
2398 2398 2.015951987769379e-6
2399 2398 -8.075067614776726e-7
2398 2399 -8.075067614780245e-7
2399 2399 1.978527000910088e-6
2400 2399 -8.139444862066244e-7
2399 2400 -8.139444862074339e-7
2400 2400 2.024099671805768e-6
2401 2400 -7.963569703320534e-7
2400 2401 -7.963569703316771e-7
2401 2401 2.0372394559395554e-6
2402 2401 -8.041706144867925e-7
2401 2402 -8.04170614486423e-7
2402 2402 2.0119342286297743e-6
2403 2402 7.961930186997124e-7
2402 2403 7.961930186994031e-7
2403 2403 2.005078739223346e-6
2404 2403 7.91742059973236e-7
2403 2404 7.91742059973207e-7
2404 2404 1.997058066817267e-6
2405 2404 -7.972774574692514e-7
2404 2405 -7.972774574699045e-7
2405 2405 2.010096273833567e-6
2406 2405 7.918320878202152e-7
2405 2406 7.918320878197365e-7
2406 2406 2.005497051556886e-6
2407 2406 7.903886228065257e-7
2406 2407 7.90388622806177e-7
2407 2407 2.0208626644367756e-6
2408 2407 8.14452193642682e-7
2407 2408 8.144521936428752e-7
2408 2408 1.983435109102215e-6
2409 2408 -7.930314184635105e-7
2408 2409 -7.930314184632884e-7
2409 2409 2.0108416503660563e-6
2410 2409 7.91372283421716e-7
2409 2410 7.913722834223055e-7
2410 2410 2.021164114302302e-6
2411 2410 8.029437077850458e-7
2410 2411 8.029437077857269e-7
2411 2411 2.0147297534006773e-6
2412 2411 -7.973040100719359e-7
2411 2412 -7.973040100730586e-7
2412 2412 2.0143880716314535e-6
2413 2412 -7.948091240480087e-7
2412 2413 -7.948091240471277e-7
2413 2413 2.0248001425050772e-6
2414 2413 -7.902357159866992e-7
2413 2414 -7.902357159869585e-7
2414 2414 1.9735623217543244e-6
2415 2414 7.828698031817077e-7
2414 2415 7.828698031821057e-7
2415 2415 2.019184037038859e-6
2416 2415 8.065405359102092e-7
2415 2416 8.065405359109272e-7
2416 2416 1.9835004625982576e-6
2417 2416 -7.924237199229256e-7
2416 2417 -7.924237199225013e-7
2417 2417 1.9649042136592343e-6
2418 2417 8.104216612153046e-7
2417 2418 8.10421661216536e-7
2418 2418 2.003855799239316e-6
2419 2418 -7.929938179828027e-7
2418 2419 -7.929938179826608e-7
2419 2419 1.992372118155151e-6
2420 2419 -7.854687513449959e-7
2419 2420 -7.854687513454866e-7
2420 2420 2.0012987013841985e-6
2421 2420 -7.967427852491103e-7
2420 2421 -7.967427852481241e-7
2421 2421 1.9780330229032777e-6
2422 2421 -7.903970498616014e-7
2421 2422 -7.903970498622319e-7
2422 2422 1.9954711959637698e-6
2423 2422 8.044885113603094e-7
2422 2423 8.044885113596231e-7
2423 2423 2.0076159967686486e-6
2424 2423 -7.886626102529376e-7
2423 2424 -7.886626102538412e-7
2424 2424 1.978812192081418e-6
2425 2424 -7.976106894345552e-7
2424 2425 -7.976106894346056e-7
2425 2425 1.997781151185892e-6
2426 2425 -8.090974360985523e-7
2425 2426 -8.090974360989664e-7
2426 2426 2.024198453050561e-6
2427 2426 7.977879970186374e-7
2426 2427 7.977879970193872e-7
2427 2427 1.989861599546676e-6
2428 2427 8.156002333156554e-7
2427 2428 8.156002333153757e-7
2428 2428 1.997707894271215e-6
2429 2428 7.918735874929577e-7
2428 2429 7.9187358749299e-7
2429 2429 2.0006307119686005e-6
2430 2429 7.895586614562577e-7
2429 2430 7.89558661455362e-7
2430 2430 2.0052388100024617e-6
2431 2430 7.968583574654736e-7
2430 2431 7.96858357464973e-7
2431 2431 2.0024214295425587e-6
2432 2431 7.889594560238301e-7
2431 2432 7.889594560234036e-7
2432 2432 1.962021387831772e-6
2433 2432 7.89541463382262e-7
2432 2433 7.89541463382538e-7
2433 2433 2.011640939218737e-6
2434 2433 -7.979803904855692e-7
2433 2434 -7.979803904855113e-7
2434 2434 2.0107483397185306e-6
2435 2434 -7.714231648225662e-7
2434 2435 -7.714231648235486e-7
2435 2435 1.9728980407833215e-6
2436 2435 7.996148574865278e-7
2435 2436 7.996148574865011e-7
2436 2436 2.0036653617815493e-6
2437 2436 8.061840033614734e-7
2436 2437 8.061840033620502e-7
2437 2437 1.992103933048238e-6
2438 2437 -7.92817263047962e-7
2437 2438 -7.928172630482806e-7
2438 2438 1.9972787081770915e-6
2439 2438 -7.844011944663947e-7
2438 2439 -7.844011944652754e-7
2439 2439 1.9882717648778045e-6
2440 2439 7.761907492464023e-7
2439 2440 7.761907492452631e-7
2440 2440 1.998208724522356e-6
2441 2440 -7.895085314921399e-7
2440 2441 -7.89508531492641e-7
2441 2441 1.974790929565476e-6
2442 2441 7.77340360913168e-7
2441 2442 7.773403609135456e-7
2442 2442 1.977238606919691e-6
2443 2442 8.001080896537631e-7
2442 2443 8.001080896533161e-7
2443 2443 2.0048872182544e-6
2444 2443 7.929103745285711e-7
2443 2444 7.929103745288326e-7
2444 2444 1.9813506689771618e-6
2445 2444 7.935383140940234e-7
2444 2445 7.935383140938944e-7
2445 2445 1.9938112963098508e-6
2446 2445 8.025118992118481e-7
2445 2446 8.025118992122472e-7
2446 2446 2.011144767387249e-6
2447 2446 -7.924506054529618e-7
2446 2447 -7.924506054530872e-7
2447 2447 1.994642602381025e-6
2448 2447 8.010572648905279e-7
2447 2448 8.010572648906552e-7
2448 2448 1.983523095132967e-6
2449 2448 7.705911251814642e-7
2448 2449 7.705911251816186e-7
2449 2449 2.0030920235693822e-6
2450 2449 7.998463906755238e-7
2449 2450 7.998463906755992e-7
2450 2450 2.001271849496145e-6
2451 2450 7.807008167562051e-7
2450 2451 7.807008167556344e-7
2451 2451 1.9951949197227964e-6
2452 2451 7.923340559125569e-7
2451 2452 7.923340559127414e-7
2452 2452 1.9852192260818794e-6
2453 2452 7.891705746447004e-7
2452 2453 7.891705746438318e-7
2453 2453 2.0237498698476866e-6
2454 2453 7.942630655374816e-7
2453 2454 7.942630655369938e-7
2454 2454 1.9871699735423095e-6
2455 2454 -8.018262427729988e-7
2454 2455 -8.018262427728034e-7
2455 2455 2.008689419381895e-6
2456 2455 7.969834392449187e-7
2455 2456 7.969834392446209e-7
2456 2456 2.0050966756975473e-6
2457 2456 7.650206790410234e-7
2456 2457 7.650206790415262e-7
2457 2457 1.999050751857305e-6
2458 2457 -7.917909870914013e-7
2457 2458 -7.917909870915052e-7
2458 2458 2.0026487294665904e-6
2459 2458 8.107370892468212e-7
2458 2459 8.107370892470696e-7
2459 2459 2.006938063634947e-6
2460 2459 -7.856970557737603e-7
2459 2460 -7.856970557724457e-7
2460 2460 2.0147561815214262e-6
2461 2460 7.960521630414866e-7
2460 2461 7.960521630420369e-7
2461 2461 2.0201794418912913e-6
2462 2461 -7.758116755166487e-7
2461 2462 -7.75811675517444e-7
2462 2462 2.004427834021975e-6
2463 2462 7.883255069221121e-7
2462 2463 7.88325506922776e-7
2463 2463 1.9952188567704355e-6
2464 2463 7.946597508208892e-7
2463 2464 7.946597508214074e-7
2464 2464 1.968209563027827e-6
2465 2464 7.802329013271065e-7
2464 2465 7.802329013263875e-7
2465 2465 2.0122741287461517e-6
2466 2465 -8.007060701326014e-7
2465 2466 -8.00706070132438e-7
2466 2466 2.000494328234949e-6
2467 2466 -8.03751306778805e-7
2466 2467 -8.037513067791223e-7
2467 2467 1.9866199710367747e-6
2468 2467 7.980824158880093e-7
2467 2468 7.980824158887683e-7
2468 2468 1.961013910680772e-6
2469 2468 7.7457092907221e-7
2468 2469 7.745709290714921e-7
2469 2469 1.9977054152242043e-6
2470 2469 7.842609459439582e-7
2469 2470 7.8426094594328e-7
2470 2470 2.0115600150635616e-6
2471 2470 -7.864817925752317e-7
2470 2471 -7.864817925748677e-7
2471 2471 1.99788823858158e-6
2472 2471 -8.053402184372073e-7
2471 2472 -8.053402184363947e-7
2472 2472 1.9920130758156883e-6
2473 2472 7.73974018223887e-7
2472 2473 7.739740182247533e-7
2473 2473 2.0213294652506935e-6
2474 2473 -7.868270886127746e-7
2473 2474 -7.868270886122782e-7
2474 2474 2.0030715507707986e-6
2475 2474 -7.759210297016735e-7
2474 2475 -7.759210297015234e-7
2475 2475 1.977308707841495e-6
2476 2475 -7.86440773177233e-7
2475 2476 -7.86440773176263e-7
2476 2476 1.9849523902993172e-6
2477 2476 -7.74047559603148e-7
2476 2477 -7.740475596032779e-7
2477 2477 1.9928340211522273e-6
2478 2477 -7.807680303976341e-7
2477 2478 -7.807680303975396e-7
2478 2478 1.986389167170409e-6
2479 2478 7.798831987778399e-7
2478 2479 7.798831987778189e-7
2479 2479 1.9837514840788454e-6
2480 2479 -7.693345210943657e-7
2479 2480 -7.693345210935852e-7
2480 2480 1.9972749749083738e-6
2481 2480 -7.795392783189105e-7
2480 2481 -7.795392783196378e-7
2481 2481 2.004731078574482e-6
2482 2481 8.004046029073753e-7
2481 2482 8.004046029068006e-7
2482 2482 1.9860153226935663e-6
2483 2482 7.762847321683807e-7
2482 2483 7.762847321686469e-7
2483 2483 1.991352132146874e-6
2484 2483 -7.844410366545886e-7
2483 2484 -7.844410366542795e-7
2484 2484 2.0368469167173036e-6
2485 2484 7.918502687335045e-7
2484 2485 7.918502687343397e-7
2485 2485 2.025841874153983e-6
2486 2485 -7.76382092735459e-7
2485 2486 -7.76382092735262e-7
2486 2486 1.998488830170701e-6
2487 2486 -7.8048469194447e-7
2486 2487 -7.804846919442053e-7
2487 2487 1.990611618702983e-6
2488 2487 -7.830832172722845e-7
2487 2488 -7.8308321727133e-7
2488 2488 2.002373374603299e-6
2489 2488 7.875473638719948e-7
2488 2489 7.875473638728375e-7
2489 2489 2.0193300188209402e-6
2490 2489 -7.843015734421182e-7
2489 2490 -7.843015734422675e-7
2490 2490 1.9925626076051663e-6
2491 2490 7.897192915319166e-7
2490 2491 7.897192915328554e-7
2491 2491 1.9927708230049796e-6
2492 2491 7.882216047907996e-7
2491 2492 7.8822160479014e-7
2492 2492 2.026880856983794e-6
2493 2492 7.740357567150807e-7
2492 2493 7.740357567144825e-7
2493 2493 1.998199451882549e-6
2494 2493 8.021648134153248e-7
2493 2494 8.021648134151408e-7
2494 2494 1.9838881180518393e-6
2495 2494 7.920291250536269e-7
2494 2495 7.920291250535302e-7
2495 2495 2.0046528312699402e-6
2496 2495 7.8673693312301e-7
2495 2496 7.867369331238807e-7
2496 2496 1.9969628416643287e-6
2497 2496 7.714684475829522e-7
2496 2497 7.714684475823446e-7
2497 2497 1.9993748032236155e-6
2498 2497 -7.759271664700938e-7
2497 2498 -7.759271664709386e-7
2498 2498 1.9893422082463095e-6
2499 2498 7.738029630590141e-7
2498 2499 7.738029630590115e-7
2499 2499 1.9978222540809986e-6
2500 2499 7.82477500985546e-7
2499 2500 7.824775009852244e-7
2500 2500 2.0001446850507825e-6
2501 2500 -7.685107974867026e-7
2500 2501 -7.685107974863867e-7
2501 2501 2.00515219683097e-6
2502 2501 -7.920250887589454e-7
2501 2502 -7.920250887593363e-7
2502 2502 2.043080435269105e-6
2503 2502 7.777784277189573e-7
2502 2503 7.777784277192885e-7
2503 2503 1.96538269578835e-6
2504 2503 7.792326454516471e-7
2503 2504 7.792326454525426e-7
2504 2504 1.992641458640122e-6
2505 2504 -7.744726351827234e-7
2504 2505 -7.74472635183932e-7
2505 2505 1.982335680516079e-6
2506 2505 -7.751177922871319e-7
2505 2506 -7.751177922857556e-7
2506 2506 1.9908311587468957e-6
2507 2506 7.800030573891336e-7
2506 2507 7.800030573894823e-7
2507 2507 2.004876119565477e-6
2508 2507 7.685367257732448e-7
2507 2508 7.685367257734699e-7
2508 2508 2.0061638221064574e-6
2509 2508 7.854089144215766e-7
2508 2509 7.854089144225357e-7
2509 2509 2.0205087936156007e-6
2510 2509 7.794234859414453e-7
2509 2510 7.794234859404804e-7
2510 2510 2.008956714837069e-6
2511 2510 7.631009705919512e-7
2510 2511 7.631009705921895e-7
2511 2511 1.993355795562257e-6
2512 2511 -7.817360225109949e-7
2511 2512 -7.817360225103388e-7
2512 2512 2.0418588597046114e-6
2513 2512 -7.791615481103375e-7
2512 2513 -7.791615481109799e-7
2513 2513 2.013528964158198e-6
2514 2513 7.866288167720657e-7
2513 2514 7.866288167722955e-7
2514 2514 1.9604760449571604e-6
2515 2514 7.737996719991194e-7
2514 2515 7.737996719980432e-7
2515 2515 1.9918722715542135e-6
2516 2515 -7.899066494732192e-7
2515 2516 -7.899066494728345e-7
2516 2516 2.0113621693492383e-6
2517 2516 7.775971221014234e-7
2516 2517 7.775971221018205e-7
2517 2517 1.9963770993321205e-6
2518 2517 -7.870190849238416e-7
2517 2518 -7.870190849236049e-7
2518 2518 1.982442082860278e-6
2519 2518 -7.866662313345681e-7
2518 2519 -7.866662313343208e-7
2519 2519 2.003640803513147e-6
2520 2519 -7.890609096699628e-7
2519 2520 -7.890609096702226e-7
2520 2520 1.997319260954745e-6
2521 2520 -7.678203861416902e-7
2520 2521 -7.678203861415023e-7
2521 2521 1.992476930904856e-6
2522 2521 -7.667281570860449e-7
2521 2522 -7.667281570851213e-7
2522 2522 1.9892479747060525e-6
2523 2522 -7.917403019952938e-7
2522 2523 -7.917403019957524e-7
2523 2523 2.0295872146240486e-6
2524 2523 -7.702857132427223e-7
2523 2524 -7.702857132425264e-7
2524 2524 2.022303241370475e-6
2525 2524 7.652901231081196e-7
2524 2525 7.652901231092333e-7
2525 2525 2.0554001355739724e-6
2526 2525 -7.545953879526518e-7
2525 2526 -7.545953879518068e-7
2526 2526 2.014942715385147e-6
2527 2526 -7.70550990866815e-7
2526 2527 -7.705509908675895e-7
2527 2527 2.0164209761954306e-6
2528 2527 7.758073159184016e-7
2527 2528 7.75807315917924e-7
2528 2528 1.9951287443733173e-6
2529 2528 -7.926073982895773e-7
2528 2529 -7.92607398289447e-7
2529 2529 2.009935412087592e-6
2530 2529 -7.865400392438904e-7
2529 2530 -7.865400392432737e-7
2530 2530 1.9730323752563404e-6
2531 2530 -7.686241763900624e-7
2530 2531 -7.686241763905714e-7
2531 2531 2.0088794848478436e-6
2532 2531 7.711552961945408e-7
2531 2532 7.711552961939892e-7
2532 2532 1.999301771388909e-6
2533 2532 7.587386725398689e-7
2532 2533 7.587386725402007e-7
2533 2533 1.996602976983944e-6
2534 2533 -7.844253836550522e-7
2533 2534 -7.8442538365432e-7
2534 2534 1.989777451694941e-6
2535 2534 7.720945604419167e-7
2534 2535 7.720945604424324e-7
2535 2535 2.013022533744641e-6
2536 2535 7.741903399338845e-7
2535 2536 7.741903399336078e-7
2536 2536 1.9873119603226452e-6
2537 2536 7.728377683368953e-7
2536 2537 7.728377683361821e-7
2537 2537 2.0119562468959257e-6
2538 2537 7.695555878207208e-7
2537 2538 7.695555878206888e-7
2538 2538 1.9721077397968225e-6
2539 2538 7.656964333227287e-7
2538 2539 7.656964333221655e-7
2539 2539 1.9522882594064816e-6
2540 2539 -7.720518296028072e-7
2539 2540 -7.720518296022793e-7
2540 2540 2.010678632322668e-6
2541 2540 -7.597593071116726e-7
2540 2541 -7.597593071114151e-7
2541 2541 1.9819368300719034e-6
2542 2541 7.856083067879928e-7
2541 2542 7.856083067883489e-7
2542 2542 1.987506344685782e-6
2543 2542 7.771602332911565e-7
2542 2543 7.771602332919651e-7
2543 2543 2.0155349322317233e-6
2544 2543 7.732307254089272e-7
2543 2544 7.732307254082807e-7
2544 2544 2.0213179277307416e-6
2545 2544 7.67068385352469e-7
2544 2545 7.670683853530072e-7
2545 2545 2.0274680443370918e-6
2546 2545 7.75661113640744e-7
2545 2546 7.756611136409447e-7
2546 2546 2.0070855641361694e-6
2547 2546 7.770053937852594e-7
2546 2547 7.770053937845532e-7
2547 2547 2.0096263481324714e-6
2548 2547 -7.754975343420086e-7
2547 2548 -7.754975343412102e-7
2548 2548 1.9761185655146732e-6
2549 2548 7.646017011808108e-7
2548 2549 7.646017011809284e-7
2549 2549 2.039600538128061e-6
2550 2549 -7.764454846784508e-7
2549 2550 -7.76445484679038e-7
2550 2550 1.970218906481829e-6
2551 2550 7.611828060726468e-7
2550 2551 7.611828060728353e-7
2551 2551 1.9984275726694566e-6
2552 2551 7.803518221604006e-7
2551 2552 7.803518221601212e-7
2552 2552 2.0000627043150856e-6
2553 2552 7.77271789447165e-7
2552 2553 7.772717894479409e-7
2553 2553 2.018225709389189e-6
2554 2553 -7.697648293268026e-7
2553 2554 -7.697648293257934e-7
2554 2554 2.0080565197177882e-6
2555 2554 7.663933689326194e-7
2554 2555 7.663933689325579e-7
2555 2555 2.0098784691961976e-6
2556 2555 7.698385574831916e-7
2555 2556 7.698385574827276e-7
2556 2556 2.0011363800582827e-6
2557 2556 7.507024661850572e-7
2556 2557 7.507024661842722e-7
2557 2557 2.0079296016566093e-6
2558 2557 7.582836745850175e-7
2557 2558 7.582836745854005e-7
2558 2558 2.0024133035257578e-6
2559 2558 7.577944925422256e-7
2558 2559 7.577944925422531e-7
2559 2559 2.0090612597613117e-6
2560 2559 -7.770097313039653e-7
2559 2560 -7.770097313037004e-7
2560 2560 1.990833406267525e-6
2561 2560 7.710321314630595e-7
2560 2561 7.710321314632005e-7
2561 2561 2.0204392661230316e-6
2562 2561 7.9451826571287e-7
2561 2562 7.945182657125615e-7
2562 2562 1.982224393969264e-6
2563 2562 7.637563810650559e-7
2562 2563 7.637563810650238e-7
2563 2563 2.0095196576804745e-6
2564 2563 7.633154066172433e-7
2563 2564 7.633154066162688e-7
2564 2564 1.9847358458686722e-6
2565 2564 7.579732331675478e-7
2564 2565 7.579732331668534e-7
2565 2565 2.0059373794420698e-6
2566 2565 7.653543173864545e-7
2565 2566 7.653543173864416e-7
2566 2566 1.9983584226401803e-6
2567 2566 -7.629811547063863e-7
2566 2567 -7.629811547061511e-7
2567 2567 1.9489019226347877e-6
2568 2567 -7.755745292570695e-7
2567 2568 -7.755745292563716e-7
2568 2568 2.0118947272872596e-6
2569 2568 7.802793271956081e-7
2568 2569 7.802793271951614e-7
2569 2569 2.0115647147129693e-6
2570 2569 7.674747075991337e-7
2569 2570 7.674747076000842e-7
2570 2570 1.9880406871841278e-6
2571 2570 -7.723070196987466e-7
2570 2571 -7.723070196980057e-7
2571 2571 2.0227589491162565e-6
2572 2571 7.732903390110648e-7
2571 2572 7.732903390104606e-7
2572 2572 1.987792886107885e-6
2573 2572 7.552558907985299e-7
2572 2573 7.552558907986389e-7
2573 2573 1.9913341963799657e-6
2574 2573 -7.48001306137566e-7
2573 2574 -7.480013061381856e-7
2574 2574 2.0262483181481625e-6
2575 2574 7.708007176000077e-7
2574 2575 7.708007175995641e-7
2575 2575 1.996054756356374e-6
2576 2575 -7.757213341896105e-7
2575 2576 -7.75721334189668e-7
2576 2576 1.9784427248903044e-6
2577 2576 7.676674118190336e-7
2576 2577 7.67667411819564e-7
2577 2577 2.0230042848481216e-6
2578 2577 7.574418302446176e-7
2577 2578 7.574418302446842e-7
2578 2578 2.0042869606688788e-6
2579 2578 7.682597803414331e-7
2578 2579 7.682597803405837e-7
2579 2579 1.981454712527225e-6
2580 2579 7.571754299695994e-7
2579 2580 7.571754299688307e-7
2580 2580 1.986813050367335e-6
2581 2580 7.511448510208919e-7
2580 2581 7.511448510203071e-7
2581 2581 2.03107046442004e-6
2582 2581 -7.617709181809161e-7
2581 2582 -7.617709181809126e-7
2582 2582 2.015231093584611e-6
2583 2582 7.710071933412973e-7
2582 2583 7.710071933414757e-7
2583 2583 1.9683430579252442e-6
2584 2583 -7.507449936789357e-7
2583 2584 -7.507449936778947e-7
2584 2584 2.016835048210846e-6
2585 2584 -7.497914514167717e-7
2584 2585 -7.497914514169888e-7
2585 2585 1.985199286045348e-6
2586 2585 -7.566284743552028e-7
2585 2586 -7.566284743548239e-7
2586 2586 1.9960121362794286e-6
2587 2586 -7.411511862908789e-7
2586 2587 -7.411511862918067e-7
2587 2587 1.967217903154488e-6
2588 2587 7.570419990514435e-7
2587 2588 7.570419990498671e-7
2588 2588 2.0180746380074796e-6
2589 2588 -7.676600647439239e-7
2588 2589 -7.676600647440095e-7
2589 2589 1.9856383559657704e-6
2590 2589 -7.59343454106934e-7
2589 2590 -7.59343454107805e-7
2590 2590 2.0015710513307784e-6
2591 2590 -7.635945910351173e-7
2590 2591 -7.635945910354143e-7
2591 2591 1.9836899367269293e-6
2592 2591 -7.513330199691111e-7
2591 2592 -7.513330199696113e-7
2592 2592 2.0094079671019785e-6
2593 2592 7.592111357130776e-7
2592 2593 7.592111357129061e-7
2593 2593 2.009861370846838e-6
2594 2593 7.67657000767329e-7
2593 2594 7.676570007685362e-7
2594 2594 2.031222110642301e-6
2595 2594 7.548887219863585e-7
2594 2595 7.548887219862057e-7
2595 2595 1.98186140203143e-6
2596 2595 7.611610322419803e-7
2595 2596 7.611610322423504e-7
2596 2596 2.0129864212361733e-6
2597 2596 -7.61721841119569e-7
2596 2597 -7.617218411195849e-7
2597 2597 2.0002620302797613e-6
2598 2597 7.674941504455045e-7
2597 2598 7.67494150445437e-7
2598 2598 2.0105358611672035e-6
2599 2598 -7.563000237144265e-7
2598 2599 -7.563000237140722e-7
2599 2599 2.0011744392569247e-6
2600 2599 7.582567500607553e-7
2599 2600 7.582567500611243e-7
2600 2600 2.0313161307618365e-6
2601 2600 7.724943836175903e-7
2600 2601 7.724943836170183e-7
2601 2601 1.990461594958579e-6
2602 2601 -7.568571251347209e-7
2601 2602 -7.568571251342989e-7
2602 2602 2.008521026952289e-6
2603 2602 7.605659054723847e-7
2602 2603 7.605659054709266e-7
2603 2603 2.028334081740383e-6
2604 2603 -7.562754135922274e-7
2603 2604 -7.562754135928954e-7
2604 2604 1.996457390956981e-6
2605 2604 -7.638053381217755e-7
2604 2605 -7.638053381218265e-7
2605 2605 2.0107995885798903e-6
2606 2605 -7.54330728980139e-7
2605 2606 -7.543307289810611e-7
2606 2606 1.9769330800627027e-6
2607 2606 -7.446202235716744e-7
2606 2607 -7.446202235709578e-7
2607 2607 1.9690350931433348e-6
2608 2607 -7.693060158921504e-7
2607 2608 -7.693060158915577e-7
2608 2608 2.007773393893919e-6
2609 2608 -7.709676824395979e-7
2608 2609 -7.709676824401809e-7
2609 2609 2.0167622001024846e-6
2610 2609 7.550646693160142e-7
2609 2610 7.550646693157363e-7
2610 2610 2.0085453889713145e-6
2611 2610 -7.586068357173724e-7
2610 2611 -7.586068357177319e-7
2611 2611 1.9995881596748725e-6
2612 2611 -7.441820846045026e-7
2611 2612 -7.441820846036165e-7
2612 2612 2.0228213550043766e-6
2613 2612 -7.754641874001743e-7
2612 2613 -7.754641873999026e-7
2613 2613 1.9928857738825126e-6
2614 2613 7.329814498653873e-7
2613 2614 7.329814498650153e-7
2614 2614 1.9913437016352357e-6
2615 2614 7.664772423415906e-7
2614 2615 7.664772423419731e-7
2615 2615 2.0301567829659875e-6
2616 2615 7.543575124368714e-7
2615 2616 7.543575124364393e-7
2616 2616 2.0181942874323253e-6
2617 2616 7.541764554591173e-7
2616 2617 7.541764554587473e-7
2617 2617 1.999936311983517e-6
2618 2617 -7.588970304520562e-7
2617 2618 -7.588970304524916e-7
2618 2618 2.0402178254349422e-6
2619 2618 -7.582688532062897e-7
2618 2619 -7.582688532067477e-7
2619 2619 1.960934981492035e-6
2620 2619 7.63382422781903e-7
2619 2620 7.633824227819609e-7
2620 2620 1.984043755315277e-6
2621 2620 -7.490481161160012e-7
2620 2621 -7.490481161158752e-7
2621 2621 2.0164344524488088e-6
2622 2621 7.454320270890612e-7
2621 2622 7.45432027089331e-7
2622 2622 1.981297584388801e-6
2623 2622 7.46908832486471e-7
2622 2623 7.46908832486905e-7
2623 2623 1.984505020179549e-6
2624 2623 -7.761140864544644e-7
2623 2624 -7.76114086454435e-7
2624 2624 1.9809715809012875e-6
2625 2624 -7.494554368519816e-7
2624 2625 -7.494554368518949e-7
2625 2625 1.97953729170264e-6
2626 2625 7.532369940078404e-7
2625 2626 7.532369940076187e-7
2626 2626 2.0191668134812755e-6
2627 2626 7.554845181932219e-7
2626 2627 7.554845181937751e-7
2627 2627 1.9381605802812514e-6
2628 2627 7.561751503700115e-7
2627 2628 7.561751503699099e-7
2628 2628 1.982337431030459e-6
2629 2628 -7.647682474665857e-7
2628 2629 -7.64768247466589e-7
2629 2629 1.988938478915418e-6
2630 2629 7.627485264626686e-7
2629 2630 7.627485264623206e-7
2630 2630 1.9755265100302e-6
2631 2630 7.458988140411975e-7
2630 2631 7.458988140407836e-7
2631 2631 1.998993577804367e-6
2632 2631 7.592101364532605e-7
2631 2632 7.592101364518589e-7
2632 2632 2.0001462434911036e-6
2633 2632 7.440240056479856e-7
2632 2633 7.440240056482639e-7
2633 2633 1.9754871268117588e-6
2634 2633 -7.569128120228348e-7
2633 2634 -7.569128120224043e-7
2634 2634 1.993064624370454e-6
2635 2634 7.578850283924308e-7
2634 2635 7.578850283932328e-7
2635 2635 1.9862338231614357e-6
2636 2635 -7.497478406828216e-7
2635 2636 -7.497478406823091e-7
2636 2636 1.974789159512856e-6
2637 2636 -7.444455510338889e-7
2636 2637 -7.444455510344104e-7
2637 2637 1.9820044990584014e-6
2638 2637 7.380820020868909e-7
2637 2638 7.380820020866485e-7
2638 2638 2.0288946514935122e-6
2639 2638 -7.631452058264795e-7
2638 2639 -7.631452058264028e-7
2639 2639 2.0143232983970932e-6
2640 2639 7.585874110819446e-7
2639 2640 7.585874110822948e-7
2640 2640 2.0139191442785827e-6
2641 2640 -7.518814897876943e-7
2640 2641 -7.518814897876555e-7
2641 2641 1.9790692368603636e-6
2642 2641 7.248863778176561e-7
2641 2642 7.248863778181309e-7
2642 2642 2.011178022357665e-6
2643 2642 7.669560817223375e-7
2642 2643 7.669560817221348e-7
2643 2643 1.9925682723852724e-6
2644 2643 7.509605135953589e-7
2643 2644 7.509605135942324e-7
2644 2644 1.97523165151202e-6
2645 2644 7.548437723886578e-7
2644 2645 7.548437723878827e-7
2645 2645 1.9870310305749277e-6
2646 2645 -7.538271324634121e-7
2645 2646 -7.538271324626458e-7
2646 2646 1.9960744119781188e-6
2647 2646 -7.527867372427518e-7
2646 2647 -7.527867372427025e-7
2647 2647 2.030514249455295e-6
2648 2647 -7.370532105344384e-7
2647 2648 -7.370532105350687e-7
2648 2648 1.986297749782945e-6
2649 2648 7.568907407994059e-7
2648 2649 7.568907407996801e-7
2649 2649 1.9917349845919115e-6
2650 2649 -7.510287761872282e-7
2649 2650 -7.510287761877586e-7
2650 2650 2.0071012589203224e-6
2651 2650 7.62487208048395e-7
2650 2651 7.624872080480194e-7
2651 2651 2.0044846846526795e-6
2652 2651 7.456591520805773e-7
2651 2652 7.456591520805902e-7
2652 2652 2.0033050041190715e-6
2653 2652 -7.635757743108383e-7
2652 2653 -7.635757743105266e-7
2653 2653 2.005822458158693e-6
2654 2653 -7.517359033895045e-7
2653 2654 -7.51735903389599e-7
2654 2654 1.994459714766825e-6
2655 2654 -7.557067578235228e-7
2654 2655 -7.557067578241235e-7
2655 2655 1.9920200819554164e-6
2656 2655 7.533481426095955e-7
2655 2656 7.53348142610204e-7
2656 2656 2.0150351159368987e-6
2657 2656 -7.5105327213493e-7
2656 2657 -7.510532721347718e-7
2657 2657 2.005314633483952e-6
2658 2657 7.467846747575676e-7
2657 2658 7.467846747576163e-7
2658 2658 1.9851974624271087e-6
2659 2658 -7.583052711428054e-7
2658 2659 -7.583052711419689e-7
2659 2659 2.016971174691512e-6
2660 2659 -7.475887341244604e-7
2659 2660 -7.47588734123957e-7
2660 2660 2.001086479489383e-6
2661 2660 7.397389221387323e-7
2660 2661 7.397389221386306e-7
2661 2661 1.9996596432242252e-6
2662 2661 7.489621556428943e-7
2661 2662 7.489621556436785e-7
2662 2662 1.9922167476884676e-6
2663 2662 7.467268263720375e-7
2662 2663 7.467268263718622e-7
2663 2663 1.9897418646966677e-6
2664 2663 7.667209135772709e-7
2663 2664 7.667209135771238e-7
2664 2664 2.020360987897828e-6
2665 2664 7.435741841074132e-7
2664 2665 7.435741841073094e-7
2665 2665 2.0060965736227144e-6
2666 2665 -7.584206094675085e-7
2665 2666 -7.584206094666456e-7
2666 2666 1.9998143272008416e-6
2667 2666 -7.438666663204816e-7
2666 2667 -7.43866666321766e-7
2667 2667 2.0005284175256845e-6
2668 2667 7.454717766227478e-7
2667 2668 7.454717766223132e-7
2668 2668 2.018417315615757e-6
2669 2668 7.316330953723927e-7
2668 2669 7.316330953720965e-7
2669 2669 2.0013433992590843e-6
2670 2669 7.481345384890764e-7
2669 2670 7.481345384882442e-7
2670 2670 1.9658709418364205e-6
2671 2670 7.54671892963579e-7
2670 2671 7.546718929635483e-7
2671 2671 1.9818989157612616e-6
2672 2671 7.288239877336244e-7
2671 2672 7.288239877336176e-7
2672 2672 2.0180390509045443e-6
2673 2672 -7.445771204851104e-7
2672 2673 -7.445771204846967e-7
2673 2673 2.0218104947306904e-6
2674 2673 -7.361756930308547e-7
2673 2674 -7.361756930303647e-7
2674 2674 1.9782211931868577e-6
2675 2674 7.508803000897452e-7
2674 2675 7.508803000900144e-7
2675 2675 2.017442916021129e-6
2676 2675 7.385673060217579e-7
2675 2676 7.385673060220443e-7
2676 2676 1.9613633499671197e-6
2677 2676 7.509839308090938e-7
2676 2677 7.509839308087074e-7
2677 2677 2.030042809499282e-6
2678 2677 -7.43971601708254e-7
2677 2678 -7.439716017096825e-7
2678 2678 1.9945155909278375e-6
2679 2678 7.328563447197409e-7
2678 2679 7.328563447204224e-7
2679 2679 2.0008895820163756e-6
2680 2679 -7.415490403797381e-7
2679 2680 -7.415490403796801e-7
2680 2680 2.018408707707781e-6
2681 2680 7.324397513253488e-7
2680 2681 7.324397513256766e-7
2681 2681 1.9836868668778694e-6
2682 2681 7.367028853063612e-7
2681 2682 7.367028853074209e-7
2682 2682 1.9992255003259485e-6
2683 2682 7.425824196689079e-7
2682 2683 7.425824196680038e-7
2683 2683 1.978459671007522e-6
2684 2683 -7.504399989095256e-7
2683 2684 -7.504399989085484e-7
2684 2684 2.014019492171348e-6
2685 2684 7.412092269965915e-7
2684 2685 7.412092269962304e-7
2685 2685 2.011092175807779e-6
2686 2685 -7.571153813021405e-7
2685 2686 -7.57115381302018e-7
2686 2686 2.0050190577163953e-6
2687 2686 -7.415064831416442e-7
2686 2687 -7.415064831417137e-7
2687 2687 1.9879730846333774e-6
2688 2687 7.371485155085069e-7
2687 2688 7.371485155099826e-7
2688 2688 1.963503175170433e-6
2689 2688 7.32356706712816e-7
2688 2689 7.323567067133227e-7
2689 2689 2.0157682705176813e-6
2690 2689 7.585929751096061e-7
2689 2690 7.585929751092985e-7
2690 2690 2.01829099633698e-6
2691 2690 7.444350662949181e-7
2690 2691 7.444350662942942e-7
2691 2691 2.013309961237738e-6
2692 2691 7.279305522474871e-7
2691 2692 7.279305522483379e-7
2692 2692 2.0136612966968033e-6
2693 2692 7.503650056794353e-7
2692 2693 7.503650056792018e-7
2693 2693 1.9839449288929715e-6
2694 2693 -7.38330741045166e-7
2693 2694 -7.38330741045033e-7
2694 2694 1.981654000991883e-6
2695 2694 -7.387577469537595e-7
2694 2695 -7.38757746953882e-7
2695 2695 2.0219975361161407e-6
2696 2695 -7.345361684800775e-7
2695 2696 -7.345361684803201e-7
2696 2696 2.0013545025067175e-6
2697 2696 7.31475522960081e-7
2696 2697 7.314755229603791e-7
2697 2697 1.9876889683983294e-6
2698 2697 7.240722299110926e-7
2697 2698 7.240722299110554e-7
2698 2698 1.9795952498812777e-6
2699 2698 7.212661666893152e-7
2698 2699 7.212661666896785e-7
2699 2699 2.0338720847234683e-6
2700 2699 -7.471148321314233e-7
2699 2700 -7.47114832131658e-7
2700 2700 1.998998213353962e-6
2701 2700 7.372336904987623e-7
2700 2701 7.372336904991759e-7
2701 2701 2.011784476925787e-6
2702 2701 -7.467869113912737e-7
2701 2702 -7.467869113909401e-7
2702 2702 1.998229856919342e-6
2703 2702 7.390431770759243e-7
2702 2703 7.390431770756047e-7
2703 2703 2.024444004156065e-6
2704 2703 -7.450439602669798e-7
2703 2704 -7.450439602675682e-7
2704 2704 1.9839298137017403e-6
2705 2704 -7.320699443188515e-7
2704 2705 -7.320699443192768e-7
2705 2705 1.995680936444312e-6
2706 2705 7.608429055434666e-7
2705 2706 7.608429055439336e-7
2706 2706 2.033380971381924e-6
2707 2706 -7.268735916966417e-7
2706 2707 -7.268735916969211e-7
2707 2707 1.999202230247958e-6
2708 2707 -7.235819642381147e-7
2707 2708 -7.235819642373828e-7
2708 2708 1.9761572187581693e-6
2709 2708 -7.314869243773102e-7
2708 2709 -7.314869243777857e-7
2709 2709 1.9558137545636417e-6
2710 2709 7.364191029229627e-7
2709 2710 7.36419102922987e-7
2710 2710 1.985519951033164e-6
2711 2710 -7.43520581014424e-7
2710 2711 -7.435205810143208e-7
2711 2711 2.0030684474620602e-6
2712 2711 7.34074849395661e-7
2711 2712 7.340748493949445e-7
2712 2712 2.013578252528419e-6
2713 2712 -7.279089816993362e-7
2712 2713 -7.279089816987447e-7
2713 2713 1.987276553503093e-6
2714 2713 7.34894931169157e-7
2713 2714 7.34894931168801e-7
2714 2714 2.025606409057876e-6
2715 2714 -7.368516421160878e-7
2714 2715 -7.368516421163963e-7
2715 2715 1.9861783893635554e-6
2716 2715 7.245162343210595e-7
2715 2716 7.245162343216521e-7
2716 2716 2.045074345221912e-6
2717 2716 7.352751891793649e-7
2716 2717 7.352751891793878e-7
2717 2717 1.988060225192247e-6
2718 2717 7.24872645692432e-7
2717 2718 7.24872645692377e-7
2718 2718 2.0014823949407822e-6
2719 2718 -7.522317918186614e-7
2718 2719 -7.522317918185587e-7
2719 2719 1.9964842175810613e-6
2720 2719 -7.322823659176353e-7
2719 2720 -7.322823659178967e-7
2720 2720 2.0150810876596833e-6
2721 2720 -7.261567174294986e-7
2720 2721 -7.26156717428942e-7
2721 2721 1.9796608095379548e-6
2722 2721 7.391808853426414e-7
2721 2722 7.391808853419377e-7
2722 2722 2.0236911214516008e-6
2723 2722 7.373271071783357e-7
2722 2723 7.373271071783709e-7
2723 2723 2.0182676367315838e-6
2724 2723 7.400557319585735e-7
2723 2724 7.400557319578416e-7
2724 2724 1.99431716705745e-6
2725 2724 7.185401448798936e-7
2724 2725 7.185401448806583e-7
2725 2725 2.0142602300279816e-6
2726 2725 7.185529381667122e-7
2725 2726 7.185529381668974e-7
2726 2726 2.000805680469819e-6
2727 2726 -7.360814785697054e-7
2726 2727 -7.360814785701182e-7
2727 2727 1.9936451378326978e-6
2728 2727 -7.243722366000534e-7
2727 2728 -7.243722366007285e-7
2728 2728 1.9936749699198263e-6
2729 2728 -7.090894782885756e-7
2728 2729 -7.090894782880943e-7
2729 2729 2.0083019054737933e-6
2730 2729 7.419479093014595e-7
2729 2730 7.419479093014048e-7
2730 2730 1.971187402205902e-6
2731 2730 -7.372157703518738e-7
2730 2731 -7.372157703509661e-7
2731 2731 2.0001677959397412e-6
2732 2731 7.275422083358101e-7
2731 2732 7.275422083361338e-7
2732 2732 1.9793038260345195e-6
2733 2732 -7.461620571713143e-7
2732 2733 -7.461620571721403e-7
2733 2733 2.0120198346551395e-6
2734 2733 -7.266907008582341e-7
2733 2734 -7.266907008595335e-7
2734 2734 2.0025436640316328e-6
2735 2734 7.225686584142452e-7
2734 2735 7.22568658413082e-7
2735 2735 1.9930534201863003e-6
2736 2735 7.246390804327134e-7
2735 2736 7.246390804330453e-7
2736 2736 1.999767203540222e-6
2737 2736 7.301485614138712e-7
2736 2737 7.301485614141237e-7
2737 2737 2.0033117640087116e-6
2738 2737 7.352493673287027e-7
2737 2738 7.352493673280463e-7
2738 2738 2.0068960790052114e-6
2739 2738 -7.137429716369568e-7
2738 2739 -7.137429716367016e-7
2739 2739 1.985500360992877e-6
2740 2739 7.259871699205802e-7
2739 2740 7.259871699194243e-7
2740 2740 1.9868124547952465e-6
2741 2740 7.436467859512599e-7
2740 2741 7.436467859508529e-7
2741 2741 2.009598962172719e-6
2742 2741 7.144550156695982e-7
2741 2742 7.144550156692016e-7
2742 2742 1.9516014414426113e-6
2743 2742 7.092160373032542e-7
2742 2743 7.092160373030013e-7
2743 2743 2.0161001208831535e-6
2744 2743 -7.398343366271713e-7
2743 2744 -7.398343366277155e-7
2744 2744 1.9875813660455176e-6
2745 2744 -7.153477945978424e-7
2744 2745 -7.153477945977828e-7
2745 2745 1.997876309446724e-6
2746 2745 -7.487191534212225e-7
2745 2746 -7.487191534208325e-7
2746 2746 2.0030682831360756e-6
2747 2746 7.136072911385555e-7
2746 2747 7.136072911377111e-7
2747 2747 2.011535727636753e-6
2748 2747 -7.290234568651645e-7
2747 2748 -7.290234568649371e-7
2748 2748 1.9978512286898377e-6
2749 2748 -7.247495389863265e-7
2748 2749 -7.247495389862777e-7
2749 2749 1.9918403608994245e-6
2750 2749 -7.366091889670836e-7
2749 2750 -7.366091889675277e-7
2750 2750 2.021331864005608e-6
2751 2750 7.387772316331378e-7
2750 2751 7.387772316332809e-7
2751 2751 2.0108742977936274e-6
2752 2751 -7.137485536815554e-7
2751 2752 -7.137485536827785e-7
2752 2752 1.981167689358397e-6
2753 2752 -7.155477806846651e-7
2752 2753 -7.155477806844777e-7
2753 2753 1.994129866519217e-6
2754 2753 -7.092982678447939e-7
2753 2754 -7.092982678437142e-7
2754 2754 2.0008588246722484e-6
2755 2754 -7.331900057632162e-7
2754 2755 -7.331900057618877e-7
2755 2755 2.010665142959037e-6
2756 2755 7.246892037084313e-7
2755 2756 7.246892037090111e-7
2756 2756 1.984769361422436e-6
2757 2756 -7.369935547411457e-7
2756 2757 -7.369935547413105e-7
2757 2757 2.0207803644462908e-6
2758 2757 7.346096886124148e-7
2757 2758 7.346096886127064e-7
2758 2758 2.017581748018353e-6
2759 2758 -7.124877703230358e-7
2758 2759 -7.124877703225722e-7
2759 2759 2.0032113967226284e-6
2760 2759 7.408693594712314e-7
2759 2760 7.408693594719278e-7
2760 2760 2.0043233566380475e-6
2761 2760 7.34223039169364e-7
2760 2761 7.342230391700515e-7
2761 2761 1.9915165192045057e-6
2762 2761 7.214266180272483e-7
2761 2762 7.214266180271012e-7
2762 2762 1.9827590195550327e-6
2763 2762 -7.226418650983856e-7
2762 2763 -7.226418650977436e-7
2763 2763 1.9930724086211075e-6
2764 2763 -7.2694922059872e-7
2763 2764 -7.269492205980621e-7
2764 2764 2.011328481493136e-6
2765 2764 -7.156931655635436e-7
2764 2765 -7.156931655626282e-7
2765 2765 1.9905784682728614e-6
2766 2765 7.319719495901106e-7
2765 2766 7.319719495902844e-7
2766 2766 1.999622259476087e-6
2767 2766 7.26214759113612e-7
2766 2767 7.262147591134085e-7
2767 2767 2.021030754535139e-6
2768 2767 7.087881190694101e-7
2767 2768 7.087881190692895e-7
2768 2768 2.005836545164883e-6
2769 2768 7.18753718904688e-7
2768 2769 7.187537189038821e-7
2769 2769 1.9827266660158794e-6
2770 2769 7.229749532396812e-7
2769 2770 7.229749532395557e-7
2770 2770 2.0180566513609523e-6
2771 2770 7.183126650930111e-7
2770 2771 7.18312665092888e-7
2771 2771 1.9796296334469953e-6
2772 2771 7.421865728654012e-7
2771 2772 7.421865728651612e-7
2772 2772 2.024907947367743e-6
2773 2772 -7.19832162275616e-7
2772 2773 -7.198321622748847e-7
2773 2773 2.000881404797576e-6
2774 2773 7.081161142058562e-7
2773 2774 7.081161142061375e-7
2774 2774 2.02204125615784e-6
2775 2774 7.227695444262612e-7
2774 2775 7.22769544426381e-7
2775 2775 2.0131166658370503e-6
2776 2775 -7.272318892498277e-7
2775 2776 -7.272318892493732e-7
2776 2776 1.9845628359389343e-6
2777 2776 -7.20752634672915e-7
2776 2777 -7.207526346725835e-7
2777 2777 2.0204152384372657e-6
2778 2777 -7.285037388893536e-7
2777 2778 -7.285037388891651e-7
2778 2778 2.0002763373396456e-6
2779 2778 7.200977836667242e-7
2778 2779 7.200977836667881e-7
2779 2779 1.9822760898625566e-6
2780 2779 -7.178791929823901e-7
2779 2780 -7.178791929834667e-7
2780 2780 2.00708646847575e-6
2781 2780 7.212379325674499e-7
2780 2781 7.212379325682517e-7
2781 2781 1.9854619838337503e-6
2782 2781 7.147512485396781e-7
2781 2782 7.147512485394827e-7
2782 2782 2.02708623266226e-6
2783 2782 -7.196662731882205e-7
2782 2783 -7.19666273187564e-7
2783 2783 2.0106093226154626e-6
2784 2783 -7.074340276553494e-7
2783 2784 -7.07434027655567e-7
2784 2784 1.991361376714896e-6
2785 2784 7.151389721219667e-7
2784 2785 7.151389721216672e-7
2785 2785 2.0235750374065156e-6
2786 2785 -7.191248448018971e-7
2785 2786 -7.191248448010442e-7
2786 2786 1.980525436339944e-6
2787 2786 7.097056623079026e-7
2786 2787 7.097056623078981e-7
2787 2787 2.014086981851409e-6
2788 2787 7.222118955703971e-7
2787 2788 7.222118955704928e-7
2788 2788 1.996395968013412e-6
2789 2788 -7.240837484748888e-7
2788 2789 -7.240837484749209e-7
2789 2789 1.995006125630399e-6
2790 2789 7.202860180032652e-7
2789 2790 7.20286018003713e-7
2790 2790 1.99479809070322e-6
2791 2790 -7.200061337750441e-7
2790 2791 -7.200061337759991e-7
2791 2791 1.9854172673359533e-6
2792 2791 7.160469037528125e-7
2791 2792 7.160469037527387e-7
2792 2792 2.0358734241989875e-6
2793 2792 7.132416616274056e-7
2792 2793 7.132416616262478e-7
2793 2793 1.9796085194518397e-6
2794 2793 -7.144420605249454e-7
2793 2794 -7.144420605238187e-7
2794 2794 2.03810055957422e-6
2795 2794 -7.253570705172827e-7
2794 2795 -7.253570705173649e-7
2795 2795 1.995600414495699e-6
2796 2795 -7.339585883608637e-7
2795 2796 -7.339585883602935e-7
2796 2796 1.9770269123389374e-6
2797 2796 -6.892365543462295e-7
2796 2797 -6.89236554346841e-7
2797 2797 1.995267304599389e-6
2798 2797 7.312100789785932e-7
2797 2798 7.312100789774551e-7
2798 2798 1.990744142358813e-6
2799 2798 -7.092443299768452e-7
2798 2799 -7.09244329976863e-7
2799 2799 1.9863521559981368e-6
2800 2799 -6.936966073962213e-7
2799 2800 -6.936966073964811e-7
2800 2800 1.987244363621195e-6
2801 2800 -7.083038691209034e-7
2800 2801 -7.083038691200936e-7
2801 2801 2.0006027084917827e-6
2802 2801 -7.090302576399516e-7
2801 2802 -7.090302576401126e-7
2802 2802 1.986141552502972e-6
2803 2802 7.141800849660419e-7
2802 2803 7.14180084965952e-7
2803 2803 2.0154008534821335e-6
2804 2803 -7.09924657826102e-7
2803 2804 -7.099246578262287e-7
2804 2804 2.012868526955658e-6
2805 2804 7.274460791583659e-7
2804 2805 7.274460791577103e-7
2805 2805 1.969838638215579e-6
2806 2805 -7.158447746221007e-7
2805 2806 -7.158447746221632e-7
2806 2806 2.048763517775927e-6
2807 2806 -7.063651534911928e-7
2806 2807 -7.063651534907882e-7
2807 2807 1.968196437399263e-6
2808 2807 -7.048369164475377e-7
2807 2808 -7.048369164472973e-7
2808 2808 1.993864444491854e-6
2809 2808 7.065223318313419e-7
2808 2809 7.065223318310894e-7
2809 2809 2.0176851667263197e-6
2810 2809 7.162431644554573e-7
2809 2810 7.162431644550555e-7
2810 2810 2.0007965766447037e-6
2811 2810 -7.167262578849831e-7
2810 2811 -7.16726257884175e-7
2811 2811 1.9812671313920486e-6
2812 2811 6.899122889273765e-7
2811 2812 6.899122889281799e-7
2812 2812 2.008448676446727e-6
2813 2812 -7.04332534774357e-7
2812 2813 -7.043325347741765e-7
2813 2813 2.0024114707555254e-6
2814 2813 -7.188889924959367e-7
2813 2814 -7.188889924956622e-7
2814 2814 2.009426535411453e-6
2815 2814 -7.079803480722352e-7
2814 2815 -7.079803480719315e-7
2815 2815 1.9990942706303113e-6
2816 2815 7.237775758858019e-7
2815 2816 7.237775758857297e-7
2816 2816 1.9930429810122805e-6
2817 2816 7.110252797216496e-7
2816 2817 7.110252797215873e-7
2817 2817 1.9722107651356887e-6
2818 2817 -7.195954893079843e-7
2817 2818 -7.195954893086947e-7
2818 2818 2.0244084899538275e-6
2819 2818 6.989790661577762e-7
2818 2819 6.989790661564286e-7
2819 2819 1.9855271417918784e-6
2820 2819 7.164374262887705e-7
2819 2820 7.164374262888458e-7
2820 2820 2.0105304554306935e-6
2821 2820 -7.056434747690277e-7
2820 2821 -7.056434747697459e-7
2821 2821 1.979003757125576e-6
2822 2821 -7.042368242495251e-7
2821 2822 -7.042368242488544e-7
2822 2822 1.990349979950452e-6
2823 2822 7.02299643332575e-7
2822 2823 7.022996433333623e-7
2823 2823 1.9857372843816265e-6
2824 2823 -6.974970486147399e-7
2823 2824 -6.974970486152686e-7
2824 2824 2.0091564023561776e-6
2825 2824 -7.040006721123778e-7
2824 2825 -7.040006721123798e-7
2825 2825 1.9929442505500994e-6
2826 2825 7.008001644106097e-7
2825 2826 7.008001644104812e-7
2826 2826 1.9979521778964927e-6
2827 2826 7.123972335915426e-7
2826 2827 7.123972335916808e-7
2827 2827 1.9708147532837902e-6
2828 2827 7.155254159877828e-7
2827 2828 7.15525415987667e-7
2828 2828 2.0036820585340525e-6
2829 2828 -7.124881226177586e-7
2828 2829 -7.124881226181777e-7
2829 2829 1.9771828033943937e-6
2830 2829 7.236245952492584e-7
2829 2830 7.23624595249211e-7
2830 2830 1.994492325842748e-6
2831 2830 -7.076256309192994e-7
2830 2831 -7.076256309191208e-7
2831 2831 1.9705018843638456e-6
2832 2831 -6.976990223801405e-7
2831 2832 -6.976990223799687e-7
2832 2832 1.9907215288677175e-6
2833 2832 6.736126997337365e-7
2832 2833 6.736126997339995e-7
2833 2833 2.013287054709458e-6
2834 2833 7.182870174443587e-7
2833 2834 7.182870174442846e-7
2834 2834 2.0334496900348536e-6
2835 2834 7.134452829683648e-7
2834 2835 7.134452829688246e-7
2835 2835 2.0289855659921983e-6
2836 2835 -6.883634749861815e-7
2835 2836 -6.883634749868742e-7
2836 2836 1.9562500737168036e-6
2837 2836 -6.832670639441365e-7
2836 2837 -6.83267063944259e-7
2837 2837 2.007645247429676e-6
2838 2837 7.086229264950783e-7
2837 2838 7.086229264956038e-7
2838 2838 2.0103046012969805e-6
2839 2838 -7.111021893796859e-7
2838 2839 -7.111021893785031e-7
2839 2839 1.973548963171761e-6
2840 2839 6.87135243463338e-7
2839 2840 6.871352434627547e-7
2840 2840 2.0300071059696514e-6
2841 2840 -7.194590376042087e-7
2840 2841 -7.19459037605046e-7
2841 2841 1.953639515574123e-6
2842 2841 -7.216725527147661e-7
2841 2842 -7.2167255271622e-7
2842 2842 2.012248333750269e-6
2843 2842 -6.966056094224569e-7
2842 2843 -6.966056094232105e-7
2843 2843 1.9959165784774484e-6
2844 2843 -7.192094739522232e-7
2843 2844 -7.192094739527651e-7
2844 2844 2.0012750280387868e-6
2845 2844 6.98699191921281e-7
2844 2845 6.986991919214283e-7
2845 2845 1.978742780292045e-6
2846 2845 -6.955785671101944e-7
2845 2846 -6.955785671098397e-7
2846 2846 2.036591067121371e-6
2847 2846 6.979678453666435e-7
2846 2847 6.979678453674172e-7
2847 2847 2.034485582536271e-6
2848 2847 -7.003782033161972e-7
2847 2848 -7.003782033164787e-7
2848 2848 2.0348009691932857e-6
2849 2848 6.947567784541896e-7
2848 2849 6.94756778454031e-7
2849 2849 1.9693450270755777e-6
2850 2849 -7.207020054522374e-7
2849 2850 -7.207020054524652e-7
2850 2850 1.980924907624067e-6
2851 2850 -7.026598955285233e-7
2850 2851 -7.026598955277634e-7
2851 2851 2.037630664153848e-6
2852 2851 -6.881380477256021e-7
2851 2852 -6.881380477263022e-7
2852 2852 2.0363663312584544e-6
2853 2852 7.154610027763587e-7
2852 2853 7.154610027757398e-7
2853 2853 2.00512408863964e-6
2854 2853 7.082388241925511e-7
2853 2854 7.082388241936045e-7
2854 2854 1.9776520390568096e-6
2855 2854 7.066471590350462e-7
2854 2855 7.066471590347762e-7
2855 2855 1.9908173425025015e-6
2856 2855 7.042920013704578e-7
2855 2856 7.042920013706725e-7
2856 2856 2.033018962417497e-6
2857 2856 7.039288649975061e-7
2856 2857 7.039288649971308e-7
2857 2857 1.9955012521639764e-6
2858 2857 -7.074743272626584e-7
2857 2858 -7.074743272627301e-7
2858 2858 2.0189190889841227e-6
2859 2858 -6.994777109889332e-7
2858 2859 -6.994777109887063e-7
2859 2859 2.015186978060125e-6
2860 2859 -6.964234578853094e-7
2859 2860 -6.964234578858532e-7
2860 2860 1.9856976143894026e-6
2861 2860 -6.914612362448754e-7
2860 2861 -6.914612362453239e-7
2861 2861 1.992999194422875e-6
2862 2861 6.948168995011757e-7
2861 2862 6.948168995010485e-7
2862 2862 2.0276784481598748e-6
2863 2862 7.007825207042539e-7
2862 2863 7.007825207044348e-7
2863 2863 2.026383481805706e-6
2864 2863 7.049382384173908e-7
2863 2864 7.049382384166629e-7
2864 2864 2.004013667949675e-6
2865 2864 7.022248304324147e-7
2864 2865 7.022248304329138e-7
2865 2865 1.999146274120403e-6
2866 2865 7.119799312823822e-7
2865 2866 7.119799312818476e-7
2866 2866 2.0183320228185867e-6
2867 2866 6.656367880950182e-7
2866 2867 6.656367880949677e-7
2867 2867 1.9720968063722216e-6
2868 2867 -7.023509779150716e-7
2867 2868 -7.023509779150684e-7
2868 2868 1.990896860331989e-6
2869 2868 6.821594417953727e-7
2868 2869 6.821594417946343e-7
2869 2869 2.018647121189458e-6
2870 2869 -6.991181990212394e-7
2869 2870 -6.991181990213241e-7
2870 2870 1.9927957834640693e-6
2871 2870 6.868852577659063e-7
2870 2871 6.868852577665503e-7
2871 2871 1.9996871313789927e-6
2872 2871 6.968533949231242e-7
2871 2872 6.968533949229894e-7
2872 2872 1.983754716997972e-6
2873 2872 -6.930622917772763e-7
2872 2873 -6.930622917769265e-7
2873 2873 2.0114475377015744e-6
2874 2873 -6.989955173301901e-7
2873 2874 -6.989955173300387e-7
2874 2874 1.9718517134662342e-6
2875 2874 7.064712107772553e-7
2874 2875 7.064712107776057e-7
2875 2875 2.0138884688741227e-6
2876 2875 7.066132904459059e-7
2875 2876 7.066132904457765e-7
2876 2876 2.0210309084495345e-6
2877 2876 -6.980334140626979e-7
2876 2877 -6.980334140619072e-7
2877 2877 2.0162301576002303e-6
2878 2877 6.92420690988696e-7
2877 2878 6.92420690988739e-7
2878 2878 1.995298673146892e-6
2879 2878 6.987688207080504e-7
2878 2879 6.987688207076349e-7
2879 2879 1.9878031783123427e-6
2880 2879 6.946156747024811e-7
2879 2880 6.946156747026956e-7
2880 2880 2.0438043315489815e-6
2881 2880 6.710689017540943e-7
2880 2881 6.710689017536649e-7
2881 2881 1.967905544645938e-6
2882 2881 -6.943406215990072e-7
2881 2882 -6.943406216003109e-7
2882 2882 2.0211306878965366e-6
2883 2882 -6.797867154905287e-7
2882 2883 -6.797867154901201e-7
2883 2883 2.0089136890293e-6
2884 2883 -7.177415531709167e-7
2883 2884 -7.17741553171729e-7
2884 2884 2.017308399752112e-6
2885 2884 6.802372985555431e-7
2884 2885 6.802372985558648e-7
2885 2885 1.972490487732735e-6
2886 2885 -6.802066022737262e-7
2885 2886 -6.802066022735686e-7
2886 2886 1.9857524566581188e-6
2887 2886 6.785335814782266e-7
2886 2887 6.785335814787101e-7
2887 2887 2.0212975969421977e-6
2888 2887 6.855911715341988e-7
2887 2888 6.855911715345414e-7
2888 2888 1.9930805721327896e-6
2889 2888 6.913221328142863e-7
2888 2889 6.913221328144421e-7
2889 2889 1.9483074129775504e-6
2890 2889 -6.818284069886754e-7
2889 2890 -6.818284069886651e-7
2890 2890 1.9713933077022655e-6
2891 2890 -7.041346307751611e-7
2890 2891 -7.041346307746578e-7
2891 2891 1.9977082131042024e-6
2892 2891 -6.78732818754507e-7
2891 2892 -6.787328187554005e-7
2892 2892 1.968633215205456e-6
2893 2892 6.878598223538212e-7
2892 2893 6.878598223533904e-7
2893 2893 2.012675482660936e-6
2894 2893 -6.848581430888331e-7
2893 2894 -6.848581430885428e-7
2894 2894 2.0001559888105757e-6
2895 2894 6.972914385157989e-7
2894 2895 6.972914385148103e-7
2895 2895 1.9870361684140595e-6
2896 2895 6.915139526155921e-7
2895 2896 6.915139526152629e-7
2896 2896 2.00088711328377e-6
2897 2896 6.853305087911803e-7
2896 2897 6.853305087915285e-7
2897 2897 2.0193828488606762e-6
2898 2897 6.77877902939775e-7
2897 2898 6.778779029395811e-7
2898 2898 1.9980445689190427e-6
2899 2898 -6.849803859191857e-7
2898 2899 -6.84980385919569e-7
2899 2899 2.0299154916877723e-6
2900 2899 -7.007165820679387e-7
2899 2900 -7.00716582067238e-7
2900 2900 1.989531935982707e-6
2901 2900 -6.853830908496695e-7
2900 2901 -6.853830908492635e-7
2901 2901 2.0074659706129015e-6
2902 2901 -6.797656388394945e-7
2901 2902 -6.797656388403711e-7
2902 2902 1.9697313929756006e-6
2903 2902 -6.778455808512563e-7
2902 2903 -6.778455808508619e-7
2903 2903 1.999976274411261e-6
2904 2903 6.866714560876372e-7
2903 2904 6.866714560869479e-7
2904 2904 1.9820203106814e-6
2905 2904 6.811616588813119e-7
2904 2905 6.811616588815462e-7
2905 2905 2.011059409872161e-6
2906 2905 6.73836362641226e-7
2905 2906 6.738363626416116e-7
2906 2906 1.980325622879856e-6
2907 2906 -6.95710021714809e-7
2906 2907 -6.957100217148452e-7
2907 2907 2.0077086204280826e-6
2908 2907 6.812339688565229e-7
2907 2908 6.812339688564166e-7
2908 2908 1.9843922862116957e-6
2909 2908 -6.972229608722965e-7
2908 2909 -6.972229608719715e-7
2909 2909 2.0098990114342996e-6
2910 2909 -6.809996968203668e-7
2909 2910 -6.809996968213349e-7
2910 2910 2.010052345406611e-6
2911 2910 -6.976026465447647e-7
2910 2911 -6.976026465444298e-7
2911 2911 1.9941347441670136e-6
2912 2911 6.906507340692426e-7
2911 2912 6.906507340691203e-7
2912 2912 1.994057972963566e-6
2913 2912 -6.752580317015666e-7
2912 2913 -6.752580317008961e-7
2913 2913 2.0061265936212063e-6
2914 2913 -6.93502187525956e-7
2913 2914 -6.935021875273602e-7
2914 2914 2.016453129358029e-6
2915 2914 6.902685839827276e-7
2914 2915 6.902685839827313e-7
2915 2915 1.973033503101831e-6
2916 2915 6.884411419219264e-7
2915 2916 6.884411419216535e-7
2916 2916 2.0498619064660724e-6
2917 2916 -6.86783957420161e-7
2916 2917 -6.867839574199235e-7
2917 2917 2.0011517237582625e-6
2918 2917 -6.817380891080845e-7
2917 2918 -6.817380891085076e-7
2918 2918 1.984700760792642e-6
2919 2918 6.78048895059306e-7
2918 2919 6.780488950593865e-7
2919 2919 2.024822516600255e-6
2920 2919 -6.915019119669346e-7
2919 2920 -6.915019119672099e-7
2920 2920 2.0079564310245272e-6
2921 2920 6.823038554963197e-7
2920 2921 6.82303855497339e-7
2921 2921 2.0017745177453516e-6
2922 2921 6.922375991441077e-7
2921 2922 6.922375991446105e-7
2922 2922 2.000751304538991e-6
2923 2922 -6.879708591314157e-7
2922 2923 -6.879708591321676e-7
2923 2923 1.983990410381278e-6
2924 2923 -6.815575495687921e-7
2923 2924 -6.815575495679403e-7
2924 2924 1.9896050684391804e-6
2925 2924 6.795021229918021e-7
2924 2925 6.795021229910925e-7
2925 2925 2.031078218221372e-6
2926 2925 6.855489362363705e-7
2925 2926 6.855489362360006e-7
2926 2926 2.0292212518938727e-6
2927 2926 6.671698931785552e-7
2926 2927 6.671698931788466e-7
2927 2927 1.9953607830185756e-6
2928 2927 -6.871663240491907e-7
2927 2928 -6.87166324049376e-7
2928 2928 2.010466083205974e-6
2929 2928 -6.668333717947431e-7
2928 2929 -6.668333717939477e-7
2929 2929 1.972713803181994e-6
2930 2929 -6.915447424755722e-7
2929 2930 -6.915447424750877e-7
2930 2930 1.955505821920193e-6
2931 2930 6.873966337837277e-7
2930 2931 6.873966337839549e-7
2931 2931 1.996518955616524e-6
2932 2931 7.009521903393668e-7
2931 2932 7.00952190339149e-7
2932 2932 2.0187934671248456e-6
2933 2932 6.770368109424552e-7
2932 2933 6.770368109432627e-7
2933 2933 1.98292708160904e-6
2934 2933 6.656938170115387e-7
2933 2934 6.656938170111502e-7
2934 2934 1.981943884408912e-6
2935 2934 -6.854089075053376e-7
2934 2935 -6.854089075050917e-7
2935 2935 1.9943104714263545e-6
2936 2935 -6.734864677616395e-7
2935 2936 -6.734864677612335e-7
2936 2936 2.016114260536596e-6
2937 2936 -6.656400975335339e-7
2936 2937 -6.656400975343227e-7
2937 2937 1.9843796206953105e-6
2938 2937 6.913404748435807e-7
2937 2938 6.913404748439555e-7
2938 2938 2.0273779919840996e-6
2939 2938 6.825439605268473e-7
2938 2939 6.825439605274325e-7
2939 2939 1.977335931090649e-6
2940 2939 -6.971200253580708e-7
2939 2940 -6.971200253581798e-7
2940 2940 2.023969926448803e-6
2941 2940 -6.902478842909844e-7
2940 2941 -6.902478842918823e-7
2941 2941 2.021310394799774e-6
2942 2941 -6.656953039910462e-7
2941 2942 -6.656953039908242e-7
2942 2942 1.9714491833790694e-6
2943 2942 6.765985574696479e-7
2942 2943 6.765985574693786e-7
2943 2943 2.0178405546628176e-6
2944 2943 -6.623581761929868e-7
2943 2944 -6.623581761929664e-7
2944 2944 1.9889482942020154e-6
2945 2944 6.898880026972235e-7
2944 2945 6.898880026975975e-7
2945 2945 2.01989247901979e-6
2946 2945 -6.743142224457421e-7
2945 2946 -6.743142224448323e-7
2946 2946 2.01821172917646e-6
2947 2946 6.890642067267595e-7
2946 2947 6.890642067264498e-7
2947 2947 1.9988323259316868e-6
2948 2947 6.656290156380228e-7
2947 2948 6.656290156382111e-7
2948 2948 2.0082235819457627e-6
2949 2948 -6.80962959025618e-7
2948 2949 -6.809629590250835e-7
2949 2949 1.971300029026953e-6
2950 2949 6.777046208406422e-7
2949 2950 6.777046208409858e-7
2950 2950 2.0019637173228606e-6
2951 2950 6.701036737912758e-7
2950 2951 6.701036737910585e-7
2951 2951 2.0047419948197404e-6
2952 2951 -6.843770347131225e-7
2951 2952 -6.843770347128959e-7
2952 2952 2.030633309780193e-6
2953 2952 -6.969657399372287e-7
2952 2953 -6.969657399367843e-7
2953 2953 2.0146231784173553e-6
2954 2953 -6.793707804333442e-7
2953 2954 -6.79370780433768e-7
2954 2954 1.977441414209438e-6
2955 2954 6.880166901056213e-7
2954 2955 6.880166901048984e-7
2955 2955 2.0035740117328872e-6
2956 2955 -6.653637865140668e-7
2955 2956 -6.653637865142741e-7
2956 2956 1.9834341549284514e-6
2957 2956 6.609353952716127e-7
2956 2957 6.609353952717937e-7
2957 2957 2.0436061619855893e-6
2958 2957 6.809062042733273e-7
2957 2958 6.809062042729283e-7
2958 2958 1.9787005064699035e-6
2959 2958 -6.645095169453749e-7
2958 2959 -6.645095169446399e-7
2959 2959 1.976426402575707e-6
2960 2959 -6.750018331863293e-7
2959 2960 -6.750018331860625e-7
2960 2960 1.9933376415404334e-6
2961 2960 6.773539931125907e-7
2960 2961 6.773539931126425e-7
2961 2961 1.9750526893003636e-6
2962 2961 -6.601069121378527e-7
2961 2962 -6.601069121383426e-7
2962 2962 1.9803065124403354e-6
2963 2962 6.688045971152049e-7
2962 2963 6.688045971148944e-7
2963 2963 1.9846522207173362e-6
2964 2963 6.728639946507233e-7
2963 2964 6.728639946507653e-7
2964 2964 1.970597036915931e-6
2965 2964 -6.622286983762004e-7
2964 2965 -6.622286983759755e-7
2965 2965 1.964646133840398e-6
2966 2965 -6.472993229449537e-7
2965 2966 -6.472993229445231e-7
2966 2966 2.0238370125097965e-6
2967 2966 7.005238823903506e-7
2966 2967 7.005238823906336e-7
2967 2967 1.988796950852447e-6
2968 2967 -6.613664971071177e-7
2967 2968 -6.613664971070731e-7
2968 2968 2.0247031125443564e-6
2969 2968 -6.732746610078907e-7
2968 2969 -6.732746610085584e-7
2969 2969 2.0084360556823678e-6
2970 2969 -6.563854638338177e-7
2969 2970 -6.563854638338062e-7
2970 2970 2.0089154638665073e-6
2971 2970 -6.770205869249918e-7
2970 2971 -6.770205869248928e-7
2971 2971 1.9830702420307274e-6
2972 2971 -6.768666125444297e-7
2971 2972 -6.768666125444048e-7
2972 2972 2.0075358673156918e-6
2973 2972 6.604081160927811e-7
2972 2973 6.604081160938626e-7
2973 2973 2.0097505616412327e-6
2974 2973 6.722012387367782e-7
2973 2974 6.722012387373662e-7
2974 2974 2.0258164924957356e-6
2975 2974 -6.623820223708267e-7
2974 2975 -6.623820223710602e-7
2975 2975 2.0021816062493627e-6
2976 2975 6.580780589480046e-7
2975 2976 6.580780589479189e-7
2976 2976 2.0115962559571972e-6
2977 2976 -6.608680171993915e-7
2976 2977 -6.608680171992318e-7
2977 2977 2.000084201417836e-6
2978 2977 6.552437969816425e-7
2977 2978 6.552437969819983e-7
2978 2978 1.9796870075258743e-6
2979 2978 6.599428908136487e-7
2978 2979 6.59942890812792e-7
2979 2979 1.9952539774304753e-6
2980 2979 6.618123894099685e-7
2979 2980 6.618123894102096e-7
2980 2980 1.9805891709341867e-6
2981 2980 -6.662917062463679e-7
2980 2981 -6.662917062458547e-7
2981 2981 2.0102848687142527e-6
2982 2981 6.595786470941498e-7
2981 2982 6.595786470940839e-7
2982 2982 1.9969533673181007e-6
2983 2982 -6.682799826825777e-7
2982 2983 -6.682799826819585e-7
2983 2983 2.0021053472912276e-6
2984 2983 -6.63191505240488e-7
2983 2984 -6.631915052403749e-7
2984 2984 1.974875919142013e-6
2985 2984 -6.550205187362585e-7
2984 2985 -6.550205187356501e-7
2985 2985 1.9801597065029786e-6
2986 2985 -6.703042880494191e-7
2985 2986 -6.703042880498505e-7
2986 2986 1.9828017373474556e-6
2987 2986 6.620575013870856e-7
2986 2987 6.620575013873912e-7
2987 2987 1.9926196308970185e-6
2988 2987 6.859801407118709e-7
2987 2988 6.85980140713313e-7
2988 2988 2.0227176320789546e-6
2989 2988 -6.812772178314927e-7
2988 2989 -6.812772178310245e-7
2989 2989 1.995491879049645e-6
2990 2989 6.578825993186911e-7
2989 2990 6.578825993181823e-7
2990 2990 1.9997917547443694e-6
2991 2990 6.742960324531591e-7
2990 2991 6.7429603245316e-7
2991 2991 2.0138236117642858e-6
2992 2991 -6.66675643149412e-7
2991 2992 -6.666756431488553e-7
2992 2992 1.9868011712001373e-6
2993 2992 6.66459655084636e-7
2992 2993 6.664596550847871e-7
2993 2993 1.9640354813873855e-6
2994 2993 6.522978140116015e-7
2993 2994 6.522978140121448e-7
2994 2994 2.008573232702298e-6
2995 2994 -6.586507000964683e-7
2994 2995 -6.586507000963846e-7
2995 2995 2.0269479730939676e-6
2996 2995 -6.695679348674752e-7
2995 2996 -6.695679348688786e-7
2996 2996 2.011577748912989e-6
2997 2996 6.720144720288542e-7
2996 2997 6.720144720287526e-7
2997 2997 2.0092241452797936e-6
2998 2997 -6.641285274978654e-7
2997 2998 -6.641285274985337e-7
2998 2998 2.0059195783373544e-6
2999 2998 6.451905277005338e-7
2998 2999 6.451905277014038e-7
2999 2999 1.9680873198808445e-6
3000 2999 6.603800031914206e-7
2999 3000 6.603800031904222e-7
3000 3000 1.973805194176042e-6
3001 3000 6.657222513476412e-7
3000 3001 6.657222513476346e-7
3001 3001 2.0294609832980944e-6
3002 3001 -6.625386345574545e-7
3001 3002 -6.625386345581708e-7
3002 3002 2.020535631692371e-6
3003 3002 6.744798733174376e-7
3002 3003 6.744798733169851e-7
3003 3003 2.0106953050051346e-6
3004 3003 6.617705529843961e-7
3003 3004 6.617705529847208e-7
3004 3004 1.9938618817791367e-6
3005 3004 -6.651890979058973e-7
3004 3005 -6.651890979052126e-7
3005 3005 2.0097063362083287e-6
3006 3005 -6.578476438668723e-7
3005 3006 -6.57847643867005e-7
3006 3006 2.0004012381418115e-6
3007 3006 6.676494762055965e-7
3006 3007 6.676494762045157e-7
3007 3007 1.996824435997091e-6
3008 3007 -6.576432742009515e-7
3007 3008 -6.576432741991478e-7
3008 3008 1.9789195563833735e-6
3009 3008 -6.637720185247043e-7
3008 3009 -6.637720185248959e-7
3009 3009 2.020224331322568e-6
3010 3009 6.483516235950776e-7
3009 3010 6.483516235949071e-7
3010 3010 1.998994826265672e-6
3011 3010 6.642315539880437e-7
3010 3011 6.642315539883742e-7
3011 3011 2.006997855051611e-6
3012 3011 -6.707521171131089e-7
3011 3012 -6.707521171127499e-7
3012 3012 1.9811728695772283e-6
3013 3012 6.586243142254487e-7
3012 3013 6.58624314225686e-7
3013 3013 1.997296352174337e-6
3014 3013 6.676769750534271e-7
3013 3014 6.676769750530565e-7
3014 3014 1.986293650753008e-6
3015 3014 6.490637045029375e-7
3014 3015 6.490637045023705e-7
3015 3015 2.014905679425099e-6
3016 3015 6.472689549575093e-7
3015 3016 6.472689549576353e-7
3016 3016 1.9892945646394624e-6
3017 3016 -6.56314959407595e-7
3016 3017 -6.563149594080212e-7
3017 3017 2.0007574385427782e-6
3018 3017 6.584306972109477e-7
3017 3018 6.584306972117941e-7
3018 3018 1.9910612656080492e-6
3019 3018 6.548722440745935e-7
3018 3019 6.548722440747341e-7
3019 3019 2.0171857640222426e-6
3020 3019 -6.56995784205995e-7
3019 3020 -6.56995784205921e-7
3020 3020 2.0165648682944133e-6
3021 3020 6.540646751412119e-7
3020 3021 6.540646751419835e-7
3021 3021 2.0326336760248418e-6
3022 3021 -6.65223171829717e-7
3021 3022 -6.652231718296631e-7
3022 3022 1.9635036258796753e-6
3023 3022 -6.678399816430044e-7
3022 3023 -6.678399816427432e-7
3023 3023 2.008528771478457e-6
3024 3023 6.503580108781132e-7
3023 3024 6.503580108785793e-7
3024 3024 2.0233146471634283e-6
3025 3024 6.5949474120285e-7
3024 3025 6.594947412023972e-7
3025 3025 2.0007228443081455e-6
3026 3025 6.396019463820435e-7
3025 3026 6.396019463816752e-7
3026 3026 1.9660121936406377e-6
3027 3026 -6.540229654727992e-7
3026 3027 -6.54022965471778e-7
3027 3027 2.0213414590513825e-6
3028 3027 -6.571047651229162e-7
3027 3028 -6.571047651230494e-7
3028 3028 2.00346425563302e-6
3029 3028 -6.605790280437589e-7
3028 3029 -6.60579028043282e-7
3029 3029 2.023247377965659e-6
3030 3029 -6.518387251466328e-7
3029 3030 -6.518387251467053e-7
3030 3030 1.9990691253518555e-6
3031 3030 -6.552814180936941e-7
3030 3031 -6.552814180932156e-7
3031 3031 1.9956820340760268e-6
3032 3031 -6.554678547385028e-7
3031 3032 -6.554678547384558e-7
3032 3032 1.9824118268062786e-6
3033 3032 6.534624304289032e-7
3032 3033 6.534624304294383e-7
3033 3033 1.999198253160513e-6
3034 3033 -6.447271778528108e-7
3033 3034 -6.447271778526351e-7
3034 3034 1.942237514829835e-6
3035 3034 6.529144266604591e-7
3034 3035 6.52914426660599e-7
3035 3035 1.9967313008657574e-6
3036 3035 -6.506732994055702e-7
3035 3036 -6.506732994056359e-7
3036 3036 2.0013309052516535e-6
3037 3036 6.378792467044381e-7
3036 3037 6.378792467047425e-7
3037 3037 2.0223769392457833e-6
3038 3037 -6.689678441272626e-7
3037 3038 -6.689678441273555e-7
3038 3038 2.000942890934336e-6
3039 3038 -6.151293604955305e-7
3038 3039 -6.151293604961527e-7
3039 3039 1.979727794148516e-6
3040 3039 6.807033439944985e-7
3039 3040 6.80703343994311e-7
3040 3040 1.9904876549848263e-6
3041 3040 -6.344977774751094e-7
3040 3041 -6.344977774755244e-7
3041 3041 1.977739059304095e-6
3042 3041 6.491363907277044e-7
3041 3042 6.491363907261985e-7
3042 3042 2.0372353193004642e-6
3043 3042 6.451645587148633e-7
3042 3043 6.451645587136054e-7
3043 3043 2.0076982969424004e-6
3044 3043 -6.572950217233598e-7
3043 3044 -6.572950217233802e-7
3044 3044 1.9968415572545067e-6
3045 3044 -6.441241798380493e-7
3044 3045 -6.441241798386353e-7
3045 3045 2.0036993785571237e-6
3046 3045 -6.555781769621057e-7
3045 3046 -6.555781769621007e-7
3046 3046 2.026214281351503e-6
3047 3046 -6.531752667873789e-7
3046 3047 -6.531752667868697e-7
3047 3047 2.0027956280019354e-6
3048 3047 6.266760629282894e-7
3047 3048 6.266760629274571e-7
3048 3048 1.9918598667512893e-6
3049 3048 6.484406323096331e-7
3048 3049 6.484406323100596e-7
3049 3049 1.9836716521376173e-6
3050 3049 6.609038286519935e-7
3049 3050 6.609038286521618e-7
3050 3050 1.999305970199277e-6
3051 3050 -6.663700669344529e-7
3050 3051 -6.663700669337535e-7
3051 3051 1.9915128604602116e-6
3052 3051 6.382213249260746e-7
3051 3052 6.382213249267209e-7
3052 3052 2.0179838751071065e-6
3053 3052 6.463029596199133e-7
3052 3053 6.463029596197957e-7
3053 3053 2.005717688745493e-6
3054 3053 6.576582549504506e-7
3053 3054 6.576582549515606e-7
3054 3054 2.0110348862111433e-6
3055 3054 6.370127168299727e-7
3054 3055 6.370127168302557e-7
3055 3055 2.0325456725543866e-6
3056 3055 6.546311279727475e-7
3055 3056 6.546311279733771e-7
3056 3056 2.0094496272976354e-6
3057 3056 6.612252465404552e-7
3056 3057 6.612252465390723e-7
3057 3057 2.0135947840300326e-6
3058 3057 -6.327174242045014e-7
3057 3058 -6.327174242035629e-7
3058 3058 1.9812468748176525e-6
3059 3058 -6.290384888143727e-7
3058 3059 -6.290384888147878e-7
3059 3059 2.0060501729010675e-6
3060 3059 -6.516942807743561e-7
3059 3060 -6.516942807749553e-7
3060 3060 1.9776623698497645e-6
3061 3060 -6.484457348951209e-7
3060 3061 -6.484457348958341e-7
3061 3061 1.9939584246134605e-6
3062 3061 -6.286083217709048e-7
3061 3062 -6.286083217714273e-7
3062 3062 1.9859303428868114e-6
3063 3062 6.461531011248714e-7
3062 3063 6.461531011242654e-7
3063 3063 1.989236067324552e-6
3064 3063 6.464916478600235e-7
3063 3064 6.464916478605475e-7
3064 3064 1.992730306406957e-6
3065 3064 -6.368219601721191e-7
3064 3065 -6.368219601723058e-7
3065 3065 2.011608603363884e-6
3066 3065 -6.37061404620289e-7
3065 3066 -6.370614046200305e-7
3066 3066 2.0012562255890247e-6
3067 3066 -6.293835776509466e-7
3066 3067 -6.293835776508076e-7
3067 3067 2.0095065585407453e-6
3068 3067 -6.430539754565113e-7
3067 3068 -6.4305397545611e-7
3068 3068 2.0280072892747444e-6
3069 3068 6.418248485663158e-7
3068 3069 6.418248485668051e-7
3069 3069 1.9980726442027164e-6
3070 3069 6.559006515704252e-7
3069 3070 6.559006515696754e-7
3070 3070 2.015329208771472e-6
3071 3070 6.494457023431649e-7
3070 3071 6.494457023432432e-7
3071 3071 2.0183886882567794e-6
3072 3071 6.483953754303137e-7
3071 3072 6.483953754304901e-7
3072 3072 1.979338199565184e-6
3073 3072 6.414781722015379e-7
3072 3073 6.414781722021711e-7
3073 3073 1.998514053009812e-6
3074 3073 -6.181174828252716e-7
3073 3074 -6.181174828254454e-7
3074 3074 1.9854128092124798e-6
3075 3074 -6.367564957689669e-7
3074 3075 -6.367564957685821e-7
3075 3075 2.006161356451301e-6
3076 3075 6.386502788743046e-7
3075 3076 6.386502788749037e-7
3076 3076 2.0069268093891866e-6
3077 3076 -6.420022417729482e-7
3076 3077 -6.420022417727755e-7
3077 3077 2.0112038571958232e-6
3078 3077 -6.211468344129097e-7
3077 3078 -6.211468344125278e-7
3078 3078 2.004690528774389e-6
3079 3078 6.502999874264463e-7
3078 3079 6.502999874265662e-7
3079 3079 2.0095107498395718e-6
3080 3079 6.351777524618426e-7
3079 3080 6.351777524612267e-7
3080 3080 1.9951677404320853e-6
3081 3080 -6.300800000404741e-7
3080 3081 -6.300800000408128e-7
3081 3081 2.015716939219485e-6
3082 3081 6.349832167694692e-7
3081 3082 6.349832167703453e-7
3082 3082 1.9735610580086055e-6
3083 3082 6.426016202994899e-7
3082 3083 6.426016202982943e-7
3083 3083 1.9848971516529377e-6
3084 3083 6.364532037821338e-7
3083 3084 6.364532037814736e-7
3084 3084 2.0004917410720657e-6
3085 3084 6.388678625397447e-7
3084 3085 6.388678625395539e-7
3085 3085 1.9947643231153475e-6
3086 3085 6.503481992757242e-7
3085 3086 6.50348199275599e-7
3086 3086 2.01184514007638e-6
3087 3086 -6.335953413993655e-7
3086 3087 -6.335953413991166e-7
3087 3087 1.9955305924672215e-6
3088 3087 -6.512259257601992e-7
3087 3088 -6.512259257605594e-7
3088 3088 1.9820384100813216e-6
3089 3088 6.428728094303472e-7
3088 3089 6.428728094305267e-7
3089 3089 2.0057760329479974e-6
3090 3089 6.30337615455339e-7
3089 3090 6.303376154553344e-7
3090 3090 2.038927670438555e-6
3091 3090 6.213182067376461e-7
3090 3091 6.213182067388067e-7
3091 3091 1.9954587729492136e-6
3092 3091 -6.192746259718779e-7
3091 3092 -6.192746259714734e-7
3092 3092 2.01399920777744e-6
3093 3092 6.240481293442263e-7
3092 3093 6.240481293435317e-7
3093 3093 1.9659069200040986e-6
3094 3093 6.268120715784317e-7
3093 3094 6.268120715769532e-7
3094 3094 2.01236624329003e-6
3095 3094 6.266816960568585e-7
3094 3095 6.266816960566212e-7
3095 3095 1.9896455113116645e-6
3096 3095 6.413891497487018e-7
3095 3096 6.413891497487577e-7
3096 3096 1.9859295978161133e-6
3097 3096 6.195706024749258e-7
3096 3097 6.195706024755198e-7
3097 3097 2.000162555262499e-6
3098 3097 6.16674127571982e-7
3097 3098 6.166741275721222e-7
3098 3098 2.004697336026289e-6
3099 3098 -6.30372132618447e-7
3098 3099 -6.303721326191652e-7
3099 3099 2.0044632241748187e-6
3100 3099 6.393989890954908e-7
3099 3100 6.393989890956192e-7
3100 3100 1.978033424177019e-6
3101 3100 6.259996682913839e-7
3100 3101 6.259996682914953e-7
3101 3101 1.9771459556792603e-6
3102 3101 -6.280224653495743e-7
3101 3102 -6.280224653491815e-7
3102 3102 2.0386784717415994e-6
3103 3102 6.258606443512862e-7
3102 3103 6.258606443504364e-7
3103 3103 1.9820826309881075e-6
3104 3103 -6.366959673481672e-7
3103 3104 -6.366959673482672e-7
3104 3104 1.998099562077358e-6
3105 3104 6.331188177068365e-7
3104 3105 6.33118817705294e-7
3105 3105 1.984278875441609e-6
3106 3105 6.280732012368647e-7
3105 3106 6.280732012372598e-7
3106 3106 1.9886514186393386e-6
3107 3106 -6.266077590022097e-7
3106 3107 -6.266077590016289e-7
3107 3107 1.969499702339015e-6
3108 3107 -6.408238432692203e-7
3107 3108 -6.408238432691565e-7
3108 3108 2.0223789519529263e-6
3109 3108 6.371763347181871e-7
3108 3109 6.371763347183535e-7
3109 3109 2.0143392853314046e-6
3110 3109 -6.165967755537979e-7
3109 3110 -6.165967755533479e-7
3110 3110 1.9706135550137338e-6
3111 3110 6.214194360790547e-7
3110 3111 6.214194360792143e-7
3111 3111 2.019114285724645e-6
3112 3111 -6.18668094104208e-7
3111 3112 -6.186680941049622e-7
3112 3112 2.029620123060495e-6
3113 3112 6.327233696027183e-7
3112 3113 6.32723369602195e-7
3113 3113 1.977097017928043e-6
3114 3113 6.402608876100146e-7
3113 3114 6.402608876102206e-7
3114 3114 2.013618623114604e-6
3115 3114 6.337150863630828e-7
3114 3115 6.337150863630011e-7
3115 3115 1.9599546943647058e-6
3116 3115 -6.393579905401069e-7
3115 3116 -6.393579905401107e-7
3116 3116 1.9848231549397237e-6
3117 3116 6.086000855922316e-7
3116 3117 6.086000855923949e-7
3117 3117 1.998109428540312e-6
3118 3117 6.271340103223328e-7
3117 3118 6.271340103235654e-7
3118 3118 2.0099188073108824e-6
3119 3118 6.319833462217542e-7
3118 3119 6.319833462212471e-7
3119 3119 2.0570537181791888e-6
3120 3119 -6.282524109065197e-7
3119 3120 -6.282524109075442e-7
3120 3120 2.007340577594227e-6
3121 3120 -6.220288660937016e-7
3120 3121 -6.220288660933892e-7
3121 3121 2.02669598178716e-6
3122 3121 6.321087700322689e-7
3121 3122 6.321087700333277e-7
3122 3122 2.0168786078601655e-6
3123 3122 -6.182481404427488e-7
3122 3123 -6.182481404433363e-7
3123 3123 2.0184396360541083e-6
3124 3123 6.23853252952897e-7
3123 3124 6.23853252953396e-7
3124 3124 1.9904713559837943e-6
3125 3124 6.327746017553638e-7
3124 3125 6.32774601755767e-7
3125 3125 1.9960858710272977e-6
3126 3125 -6.292731089701198e-7
3125 3126 -6.292731089699236e-7
3126 3126 2.0042930636108026e-6
3127 3126 6.321009154543726e-7
3126 3127 6.32100915453466e-7
3127 3127 1.99193683626065e-6
3128 3127 6.262031457272933e-7
3127 3128 6.262031457268704e-7
3128 3128 1.9895876370997707e-6
3129 3128 -6.273503342651508e-7
3128 3129 -6.273503342663066e-7
3129 3129 2.014802793905687e-6
3130 3129 -6.157771553591235e-7
3129 3130 -6.157771553591178e-7
3130 3130 1.988308353321927e-6
3131 3130 -6.258351761619516e-7
3130 3131 -6.258351761620203e-7
3131 3131 1.9845445017709145e-6
3132 3131 -6.133770195343286e-7
3131 3132 -6.133770195347538e-7
3132 3132 2.035745509355803e-6
3133 3132 -6.343208799308335e-7
3132 3133 -6.34320879930343e-7
3133 3133 1.987236823171871e-6
3134 3133 6.079093042652744e-7
3133 3134 6.07909304265392e-7
3134 3134 1.967909588959965e-6
3135 3134 6.137889069713639e-7
3134 3135 6.137889069705188e-7
3135 3135 1.953257130365447e-6
3136 3135 6.219786361382694e-7
3135 3136 6.219786361383803e-7
3136 3136 2.006998791313665e-6
3137 3136 6.080038762256263e-7
3136 3137 6.080038762250361e-7
3137 3137 2.0103713304227637e-6
3138 3137 -6.32671255180789e-7
3137 3138 -6.326712551805813e-7
3138 3138 1.9988683531326647e-6
3139 3138 6.189429150692277e-7
3138 3139 6.189429150690925e-7
3139 3139 2.00641974745098e-6
3140 3139 6.080263209198231e-7
3139 3140 6.080263209200154e-7
3140 3140 2.006252389510056e-6
3141 3140 6.194444381982779e-7
3140 3141 6.194444381979765e-7
3141 3141 2.04315499259368e-6
3142 3141 6.207560722140165e-7
3141 3142 6.207560722144259e-7
3142 3142 2.0227200663068892e-6
3143 3142 -6.171288040789196e-7
3142 3143 -6.17128804078943e-7
3143 3143 2.0259556550488377e-6
3144 3143 5.901477115615127e-7
3143 3144 5.901477115617402e-7
3144 3144 1.9828377156837225e-6
3145 3144 -6.184649528380902e-7
3144 3145 -6.184649528376059e-7
3145 3145 2.03638256675887e-6
3146 3145 -6.236061549515499e-7
3145 3146 -6.23606154951934e-7
3146 3146 2.0058782845250073e-6
3147 3146 -5.966182454318255e-7
3146 3147 -5.966182454318969e-7
3147 3147 1.9784685513639215e-6
3148 3147 6.12620715658731e-7
3147 3148 6.12620715658735e-7
3148 3148 2.001796228399976e-6
3149 3148 -5.956161849973712e-7
3148 3149 -5.956161849971712e-7
3149 3149 1.9932290464593997e-6
3150 3149 -6.07097993348754e-7
3149 3150 -6.070979933488938e-7
3150 3150 2.0040565222693913e-6
3151 3150 -6.14923111796331e-7
3150 3151 -6.149231117953738e-7
3151 3151 1.9874122049803123e-6
3152 3151 6.207422528169068e-7
3151 3152 6.207422528170747e-7
3152 3152 2.0216018301088945e-6
3153 3152 6.342584535567401e-7
3152 3153 6.342584535574521e-7
3153 3153 2.0158108566401683e-6
3154 3153 6.154563329761706e-7
3153 3154 6.154563329766608e-7
3154 3154 1.9863377968704973e-6
3155 3154 6.183280892662027e-7
3154 3155 6.183280892656374e-7
3155 3155 1.957816776187752e-6
3156 3155 -6.220914397759325e-7
3155 3156 -6.220914397764815e-7
3156 3156 1.9736883275576746e-6
3157 3156 6.376525682132971e-7
3156 3157 6.376525682135705e-7
3157 3157 2.0124252591657714e-6
3158 3157 6.088196954787121e-7
3157 3158 6.088196954787225e-7
3158 3158 2.001599560090157e-6
3159 3158 -6.039817672837001e-7
3158 3159 -6.039817672834591e-7
3159 3159 1.982531982846533e-6
3160 3159 -5.951990019599322e-7
3159 3160 -5.951990019606434e-7
3160 3160 2.0219850049109192e-6
3161 3160 6.299503314694358e-7
3160 3161 6.299503314701326e-7
3161 3161 1.9929734891620566e-6
3162 3161 -5.86566111206595e-7
3161 3162 -5.865661112071198e-7
3162 3162 2.0083575613442276e-6
3163 3162 6.104971862224573e-7
3162 3163 6.104971862217272e-7
3163 3163 1.9982270303181348e-6
3164 3163 -6.107405422524895e-7
3163 3164 -6.107405422524517e-7
3164 3164 1.991950416994224e-6
3165 3164 -6.11264968484524e-7
3164 3165 -6.112649684844355e-7
3165 3165 2.0212175210528482e-6
3166 3165 -6.089053602842681e-7
3165 3166 -6.089053602845411e-7
3166 3166 2.0480638756389227e-6
3167 3166 6.181823623034399e-7
3166 3167 6.181823623032625e-7
3167 3167 2.0076893813228163e-6
3168 3167 6.20746778612459e-7
3167 3168 6.207467786113874e-7
3168 3168 1.9655740507197954e-6
3169 3168 -6.161664879055022e-7
3168 3169 -6.161664879051706e-7
3169 3169 2.0159569083598833e-6
3170 3169 6.065289716463737e-7
3169 3170 6.0652897164602e-7
3170 3170 2.004176654321628e-6
3171 3170 5.999670737314103e-7
3170 3171 5.99967073731596e-7
3171 3171 2.005706309123395e-6
3172 3171 6.162617801118666e-7
3171 3172 6.162617801121486e-7
3172 3172 2.011819868835744e-6
3173 3172 5.981464146003063e-7
3172 3173 5.981464145998163e-7
3173 3173 2.0144318009582025e-6
3174 3173 6.056425083984779e-7
3173 3174 6.056425083976486e-7
3174 3174 2.0265767315474884e-6
3175 3174 -5.98591883073786e-7
3174 3175 -5.985918830730099e-7
3175 3175 1.9839904485093443e-6
3176 3175 -5.979602481966772e-7
3175 3176 -5.97960248197384e-7
3176 3176 1.983431081073014e-6
3177 3176 6.159777961242478e-7
3176 3177 6.159777961233479e-7
3177 3177 2.018691958267603e-6
3178 3177 -6.227340548394294e-7
3177 3178 -6.227340548399279e-7
3178 3178 1.95677242427856e-6
3179 3178 6.197029681407014e-7
3178 3179 6.19702968140252e-7
3179 3179 1.9949217982274324e-6
3180 3179 -5.968411163303999e-7
3179 3180 -5.968411163301815e-7
3180 3180 2.020896278199531e-6
3181 3180 6.012857710921088e-7
3180 3181 6.012857710920432e-7
3181 3181 1.990597488305433e-6
3182 3181 -5.811205754373937e-7
3181 3182 -5.811205754375764e-7
3182 3182 1.9975218421058323e-6
3183 3182 6.260769966833552e-7
3182 3183 6.260769966829174e-7
3183 3183 1.976561314948543e-6
3184 3183 -6.026729977092564e-7
3183 3184 -6.026729977095763e-7
3184 3184 1.98182996191113e-6
3185 3184 6.189001274909546e-7
3184 3185 6.189001274905967e-7
3185 3185 1.9884611593736024e-6
3186 3185 -6.046185764656016e-7
3185 3186 -6.046185764661725e-7
3186 3186 2.017580121747161e-6
3187 3186 6.433853191834669e-7
3186 3187 6.433853191829835e-7
3187 3187 1.9994061476302626e-6
3188 3187 6.13694805249988e-7
3187 3188 6.136948052493788e-7
3188 3188 2.0055627234440074e-6
3189 3188 6.02636252378912e-7
3188 3189 6.026362523787305e-7
3189 3189 2.0051092616195382e-6
3190 3189 -6.105413324248766e-7
3189 3190 -6.105413324255098e-7
3190 3190 1.968004365161855e-6
3191 3190 -6.013558312751965e-7
3190 3191 -6.013558312753242e-7
3191 3191 2.0195675084939816e-6
3192 3191 -5.942582997973962e-7
3191 3192 -5.942582997976086e-7
3192 3192 1.9983167140296007e-6
3193 3192 -6.039410029070921e-7
3192 3193 -6.03941002906831e-7
3193 3193 1.985732106887559e-6
3194 3193 -5.903900815488528e-7
3193 3194 -5.903900815491421e-7
3194 3194 2.04563235848375e-6
3195 3194 6.04724247203301e-7
3194 3195 6.047242472025576e-7
3195 3195 1.9970128335102852e-6
3196 3195 -5.957014455910015e-7
3195 3196 -5.957014455906501e-7
3196 3196 1.987215317989838e-6
3197 3196 -5.955133861408551e-7
3196 3197 -5.955133861408335e-7
3197 3197 2.0139027103656584e-6
3198 3197 5.991402111534934e-7
3197 3198 5.991402111541301e-7
3198 3198 1.971047856126476e-6
3199 3198 -5.99402239090171e-7
3198 3199 -5.994022390904355e-7
3199 3199 2.030127457888994e-6
3200 3199 -5.982475712665025e-7
3199 3200 -5.982475712658025e-7
3200 3200 1.977104458251908e-6
3201 3200 5.97865351791162e-7
3200 3201 5.978653517902677e-7
3201 3201 2.031062610592913e-6
3202 3201 -5.936640607592513e-7
3201 3202 -5.936640607593067e-7
3202 3202 2.021029964053464e-6
3203 3202 -6.007135711899883e-7
3202 3203 -6.007135711906028e-7
3203 3203 1.9690072513171925e-6
3204 3203 -5.858776651190479e-7
3203 3204 -5.85877665117683e-7
3204 3204 2.001649890291357e-6
3205 3204 -6.067913171970745e-7
3204 3205 -6.067913171977286e-7
3205 3205 2.021586295929265e-6
3206 3205 5.933366361227581e-7
3205 3206 5.933366361230019e-7
3206 3206 1.978234297583944e-6
3207 3206 6.191376502396957e-7
3206 3207 6.1913765023947e-7
3207 3207 1.9762774842954282e-6
3208 3207 -5.983703331350223e-7
3207 3208 -5.983703331350685e-7
3208 3208 2.0456014800411178e-6
3209 3208 6.003046905217303e-7
3208 3209 6.003046905217643e-7
3209 3209 1.988616096443376e-6
3210 3209 -5.943226722860119e-7
3209 3210 -5.943226722851965e-7
3210 3210 2.0267540930976274e-6
3211 3210 -5.883232349841965e-7
3210 3211 -5.883232349847516e-7
3211 3211 2.004100747687746e-6
3212 3211 -6.177955155692617e-7
3211 3212 -6.177955155695426e-7
3212 3212 1.961993691694209e-6
3213 3212 -6.075446664447757e-7
3212 3213 -6.075446664449653e-7
3213 3213 2.012260867759158e-6
3214 3213 -6.047347474533077e-7
3213 3214 -6.047347474535017e-7
3214 3214 1.9876843515190086e-6
3215 3214 -5.956951841096318e-7
3214 3215 -5.956951841095891e-7
3215 3215 2.0105130640780905e-6
3216 3215 -6.089042659591793e-7
3215 3216 -6.089042659594697e-7
3216 3216 1.9821212473351635e-6
3217 3216 -6.003239183227958e-7
3216 3217 -6.003239183225185e-7
3217 3217 1.9984651843276395e-6
3218 3217 -5.976869792930769e-7
3217 3218 -5.976869792934187e-7
3218 3218 2.00305541802116e-6
3219 3218 -5.836992521826244e-7
3218 3219 -5.836992521824046e-7
3219 3219 1.986869526536502e-6
3220 3219 5.948630428505472e-7
3219 3220 5.948630428509943e-7
3220 3220 2.0247330791977565e-6
3221 3220 -6.045768623070419e-7
3220 3221 -6.04576862308167e-7
3221 3221 1.982465920207035e-6
3222 3221 -5.813584507090953e-7
3221 3222 -5.813584507089266e-7
3222 3222 2.0124151715859635e-6
3223 3222 -5.779736195877281e-7
3222 3223 -5.77973619587271e-7
3223 3223 2.0220559319635834e-6
3224 3223 -5.894361445203437e-7
3223 3224 -5.894361445205938e-7
3224 3224 2.01378581800796e-6
3225 3224 6.044144675528983e-7
3224 3225 6.044144675532374e-7
3225 3225 2.01990116408546e-6
3226 3225 -5.863497389374296e-7
3225 3226 -5.863497389366262e-7
3226 3226 1.989934477035178e-6
3227 3226 -5.900241587175377e-7
3226 3227 -5.900241587175047e-7
3227 3227 2.007295013796955e-6
3228 3227 5.928051043366338e-7
3227 3228 5.928051043363452e-7
3228 3228 1.9987103951953408e-6
3229 3228 6.020005029983047e-7
3228 3229 6.020005029981551e-7
3229 3229 1.993269506987079e-6
3230 3229 -5.891424839655195e-7
3229 3230 -5.89142483965492e-7
3230 3230 1.984740979783887e-6
3231 3230 -5.901394049960482e-7
3230 3231 -5.901394049965236e-7
3231 3231 2.032561684874331e-6
3232 3231 5.925412959346089e-7
3231 3232 5.925412959340648e-7
3232 3232 1.9586414643052265e-6
3233 3232 -5.904911357335968e-7
3232 3233 -5.904911357329861e-7
3233 3233 2.0048183670515175e-6
3234 3233 -6.046609417499906e-7
3233 3234 -6.046609417497829e-7
3234 3234 1.9700400350942284e-6
3235 3234 -5.94650404929924e-7
3234 3235 -5.946504049298956e-7
3235 3235 2.0129682944945355e-6
3236 3235 -5.831594411180416e-7
3235 3236 -5.831594411178106e-7
3236 3236 2.0035233764630476e-6
3237 3236 5.861115811955521e-7
3236 3237 5.861115811946115e-7
3237 3237 2.0117835591547962e-6
3238 3237 -5.731624664729065e-7
3237 3238 -5.7316246647332e-7
3238 3238 1.9898736786784452e-6
3239 3238 -5.890969202758564e-7
3238 3239 -5.890969202754086e-7
3239 3239 2.026639061980037e-6
3240 3239 -5.840132014354592e-7
3239 3240 -5.84013201436094e-7
3240 3240 1.9727942507308214e-6
3241 3240 -5.9507271653641e-7
3240 3241 -5.950727165367131e-7
3241 3241 2.034531118859972e-6
3242 3241 6.057460479637486e-7
3241 3242 6.057460479631815e-7
3242 3242 1.9640545326529017e-6
3243 3242 -5.959474048356783e-7
3242 3243 -5.959474048356736e-7
3243 3243 2.0019619471004663e-6
3244 3243 -5.735235958776565e-7
3243 3244 -5.735235958777681e-7
3244 3244 1.986092992799769e-6
3245 3244 5.831881237578968e-7
3244 3245 5.831881237569838e-7
3245 3245 1.9638390021600473e-6
3246 3245 -5.892997797663993e-7
3245 3246 -5.892997797658378e-7
3246 3246 1.9916010205363476e-6
3247 3246 5.855627053290644e-7
3246 3247 5.855627053291005e-7
3247 3247 2.004490319530739e-6
3248 3247 5.724368245904434e-7
3247 3248 5.724368245899483e-7
3248 3248 2.0389853520642526e-6
3249 3248 5.800473152551101e-7
3248 3249 5.800473152552562e-7
3249 3249 2.0126481207955648e-6
3250 3249 -5.856229754191681e-7
3249 3250 -5.856229754191618e-7
3250 3250 1.9868169517455363e-6
3251 3250 -5.864057901730193e-7
3250 3251 -5.864057901731739e-7
3251 3251 2.00995317800308e-6
3252 3251 -5.930204565802196e-7
3251 3252 -5.930204565800134e-7
3252 3252 2.0027886129044045e-6
3253 3252 -5.874915606354338e-7
3252 3253 -5.874915606362123e-7
3253 3253 1.9846780361710733e-6
3254 3253 5.746183256298818e-7
3253 3254 5.746183256291316e-7
3254 3254 1.985816900070084e-6
3255 3254 5.751839260151936e-7
3254 3255 5.751839260152146e-7
3255 3255 2.001640206373068e-6
3256 3255 5.7871130266288e-7
3255 3256 5.787113026627659e-7
3256 3256 2.009257909785693e-6
3257 3256 -5.947628162063006e-7
3256 3257 -5.947628162067044e-7
3257 3257 1.9772858989683115e-6
3258 3257 -5.85708890492593e-7
3257 3258 -5.8570889049322e-7
3258 3258 2.020260569073069e-6
3259 3258 -5.835561872626487e-7
3258 3259 -5.835561872625118e-7
3259 3259 2.005634903194859e-6
3260 3259 5.733534472517375e-7
3259 3260 5.733534472513521e-7
3260 3260 2.016543781694015e-6
3261 3260 -5.665280224070003e-7
3260 3261 -5.665280224068426e-7
3261 3261 1.9812966629823045e-6
3262 3261 5.674944642690994e-7
3261 3262 5.674944642692985e-7
3262 3262 1.958005273510538e-6
3263 3262 5.917449896549043e-7
3262 3263 5.91744989655123e-7
3263 3263 2.0114164964176783e-6
3264 3263 -5.806631933812059e-7
3263 3264 -5.806631933809764e-7
3264 3264 2.013509222298142e-6
3265 3264 -5.574835335923833e-7
3264 3265 -5.57483533591655e-7
3265 3265 1.992114952579288e-6
3266 3265 -5.814093850766906e-7
3265 3266 -5.814093850772793e-7
3266 3266 2.0340495866525936e-6
3267 3266 5.661665067729993e-7
3266 3267 5.661665067727636e-7
3267 3267 1.996672073327699e-6
3268 3267 -5.709916748551324e-7
3267 3268 -5.709916748548937e-7
3268 3268 1.9778457065687538e-6
3269 3268 -5.646491070109903e-7
3268 3269 -5.64649107010406e-7
3269 3269 1.9978369037181225e-6
3270 3269 -5.912976548126956e-7
3269 3270 -5.912976548131058e-7
3270 3270 2.001022006235355e-6
3271 3270 5.778708268974676e-7
3270 3271 5.778708268974163e-7
3271 3271 1.9669511463723358e-6
3272 3271 5.629334900321388e-7
3271 3272 5.629334900329804e-7
3272 3272 1.99512454844649e-6
3273 3272 -5.802829237077125e-7
3272 3273 -5.80282923707554e-7
3273 3273 2.0031281901642705e-6
3274 3273 -5.657344825201853e-7
3273 3274 -5.657344825196853e-7
3274 3274 1.9577980593882265e-6
3275 3274 5.675499025431951e-7
3274 3275 5.675499025433213e-7
3275 3275 2.017268511395683e-6
3276 3275 5.653404186087019e-7
3275 3276 5.653404186089443e-7
3276 3276 1.973921288071903e-6
3277 3276 5.719300808089871e-7
3276 3277 5.719300808091055e-7
3277 3277 2.0067924515787317e-6
3278 3277 5.580306755753773e-7
3277 3278 5.580306755753718e-7
3278 3278 1.987976374732601e-6
3279 3278 -5.665987132809974e-7
3278 3279 -5.665987132804684e-7
3279 3279 1.9605378022871677e-6
3280 3279 -5.619772734616491e-7
3279 3280 -5.619772734614139e-7
3280 3280 1.993442872079025e-6
3281 3280 5.725424723369055e-7
3280 3281 5.725424723365553e-7
3281 3281 1.9908714650187508e-6
3282 3281 5.803285818668355e-7
3281 3282 5.803285818667742e-7
3282 3282 1.979325676508614e-6
3283 3282 5.745445182197584e-7
3282 3283 5.74544518219298e-7
3283 3283 1.9804218193239945e-6
3284 3283 5.584765022654388e-7
3283 3284 5.58476502265492e-7
3284 3284 2.011535138048227e-6
3285 3284 -5.756208362602383e-7
3284 3285 -5.756208362590956e-7
3285 3285 2.00333807804064e-6
3286 3285 5.536620089488608e-7
3285 3286 5.536620089491291e-7
3286 3286 2.0154859018222407e-6
3287 3286 -5.791920594755847e-7
3286 3287 -5.791920594755377e-7
3287 3287 1.9915353500200412e-6
3288 3287 -5.611000510865041e-7
3287 3288 -5.611000510853657e-7
3288 3288 1.990163527513525e-6
3289 3288 5.845736030829086e-7
3288 3289 5.845736030818048e-7
3289 3289 2.0071702636123136e-6
3290 3289 5.640659093191991e-7
3289 3290 5.64065909319403e-7
3290 3290 2.019663577061124e-6
3291 3290 5.672200454231962e-7
3290 3291 5.672200454228081e-7
3291 3291 2.0014995708456215e-6
3292 3291 5.757137682258677e-7
3291 3292 5.757137682256089e-7
3292 3292 1.980975361284936e-6
3293 3292 5.672786003974624e-7
3292 3293 5.67278600397178e-7
3293 3293 1.998568432009526e-6
3294 3293 5.620347842766318e-7
3293 3294 5.620347842760417e-7
3294 3294 2.0113743100192337e-6
3295 3294 -5.689634525130889e-7
3294 3295 -5.689634525134558e-7
3295 3295 1.990122907868109e-6
3296 3295 5.585156540529063e-7
3295 3296 5.585156540529549e-7
3296 3296 2.0123888710161046e-6
3297 3296 5.569981903025745e-7
3296 3297 5.569981903024954e-7
3297 3297 1.9940630956219112e-6
3298 3297 -5.912505662299936e-7
3297 3298 -5.912505662297186e-7
3298 3298 2.0128190145361818e-6
3299 3298 5.752886126729418e-7
3298 3299 5.752886126735065e-7
3299 3299 2.014340695082351e-6
3300 3299 5.680174892732017e-7
3299 3300 5.680174892732642e-7
3300 3300 2.0148786556697305e-6
3301 3300 5.515572073506455e-7
3300 3301 5.515572073496911e-7
3301 3301 2.0278836747969987e-6
3302 3301 -5.588866456720118e-7
3301 3302 -5.588866456725038e-7
3302 3302 2.0184793376729356e-6
3303 3302 -5.946406876149535e-7
3302 3303 -5.946406876143669e-7
3303 3303 2.039536198265108e-6
3304 3303 5.65884442862818e-7
3303 3304 5.658844428622934e-7
3304 3304 1.9674564225415716e-6
3305 3304 5.745133617872797e-7
3304 3305 5.745133617879707e-7
3305 3305 2.0268043545965608e-6
3306 3305 5.803858248464807e-7
3305 3306 5.803858248462139e-7
3306 3306 2.016208779474947e-6
3307 3306 -5.632165338708388e-7
3306 3307 -5.632165338710622e-7
3307 3307 1.965885555634894e-6
3308 3307 -5.600805168820556e-7
3307 3308 -5.600805168831554e-7
3308 3308 2.0036072271579672e-6
3309 3308 5.836412636077822e-7
3308 3309 5.836412636072358e-7
3309 3309 2.0265212008042826e-6
3310 3309 -5.582340444058446e-7
3309 3310 -5.582340444058749e-7
3310 3310 1.9910235259914904e-6
3311 3310 5.556330746335717e-7
3310 3311 5.556330746338857e-7
3311 3311 1.983089244544335e-6
3312 3311 -5.584964435323539e-7
3311 3312 -5.58496443532232e-7
3312 3312 1.9886449624575263e-6
3313 3312 5.592550255631578e-7
3312 3313 5.592550255630648e-7
3313 3313 1.9823890638182797e-6
3314 3313 -5.516637990277261e-7
3313 3314 -5.516637990276074e-7
3314 3314 2.010865327117932e-6
3315 3314 5.493972507154466e-7
3314 3315 5.493972507152403e-7
3315 3315 1.9908687085396128e-6
3316 3315 5.411812177198404e-7
3315 3316 5.41181217718849e-7
3316 3316 2.01018916726668e-6
3317 3316 -5.650427946695523e-7
3316 3317 -5.650427946699718e-7
3317 3317 2.0158764388068945e-6
3318 3317 5.591066284580418e-7
3317 3318 5.59106628458237e-7
3318 3318 1.984585663930751e-6
3319 3318 -5.659088712883285e-7
3318 3319 -5.659088712882901e-7
3319 3319 2.0483468226730564e-6
3320 3319 5.453437961729005e-7
3319 3320 5.453437961723354e-7
3320 3320 1.9811303825393824e-6
3321 3320 5.697137881972127e-7
3320 3321 5.697137881964533e-7
3321 3321 1.9998184601670077e-6
3322 3321 5.475462470216782e-7
3321 3322 5.475462470212784e-7
3322 3322 1.981251967492789e-6
3323 3322 5.520815536564235e-7
3322 3323 5.520815536572354e-7
3323 3323 2.0012579700862026e-6
3324 3323 -5.663684496545544e-7
3323 3324 -5.663684496546634e-7
3324 3324 2.0117642735517347e-6
3325 3324 5.527714696533344e-7
3324 3325 5.527714696527741e-7
3325 3325 1.97488987399289e-6
3326 3325 5.575024675346113e-7
3325 3326 5.575024675344869e-7
3326 3326 1.986886770171493e-6
3327 3326 -5.782642887390112e-7
3326 3327 -5.782642887388783e-7
3327 3327 2.0128679957858364e-6
3328 3327 5.614116875517678e-7
3327 3328 5.6141168755226e-7
3328 3328 1.999130479739421e-6
3329 3328 5.398201584133381e-7
3328 3329 5.398201584138206e-7
3329 3329 2.002636808036939e-6
3330 3329 5.427906298132911e-7
3329 3330 5.427906298137908e-7
3330 3330 2.0284700590935557e-6
3331 3330 5.40257744070328e-7
3330 3331 5.402577440714355e-7
3331 3331 1.9970258182699222e-6
3332 3331 -5.555011239104804e-7
3331 3332 -5.555011239100226e-7
3332 3332 2.0256071684539003e-6
3333 3332 5.465268487742595e-7
3332 3333 5.465268487744569e-7
3333 3333 1.978792770811624e-6
3334 3333 5.404008569585794e-7
3333 3334 5.404008569589689e-7
3334 3334 2.0469271072221933e-6
3335 3334 -5.455453541908593e-7
3334 3335 -5.455453541904603e-7
3335 3335 1.9936677815381175e-6
3336 3335 -5.443523559759919e-7
3335 3336 -5.44352355975955e-7
3336 3336 1.999173389517286e-6
3337 3336 5.598903766008364e-7
3336 3337 5.598903766002838e-7
3337 3337 1.9986112376405837e-6
3338 3337 -5.538139437647376e-7
3337 3338 -5.538139437641452e-7
3338 3338 2.0014852022432083e-6
3339 3338 5.4166744225639e-7
3338 3339 5.416674422563501e-7
3339 3339 1.9608456273915646e-6
3340 3339 -5.43491726704449e-7
3339 3340 -5.434917267043222e-7
3340 3340 1.999836739501745e-6
3341 3340 5.57276405883303e-7
3340 3341 5.572764058840059e-7
3341 3341 2.0028231875210693e-6
3342 3341 -5.450251567346754e-7
3341 3342 -5.45025156734535e-7
3342 3342 2.0084187254843205e-6
3343 3342 -5.55337366997615e-7
3342 3343 -5.553373669982599e-7
3343 3343 1.9805463051508605e-6
3344 3343 -5.48120797157785e-7
3343 3344 -5.481207971575151e-7
3344 3344 1.9883820880262476e-6
3345 3344 5.495024317186361e-7
3344 3345 5.495024317181928e-7
3345 3345 1.9770370134261078e-6
3346 3345 -5.516935664030203e-7
3345 3346 -5.516935664032463e-7
3346 3346 2.007910447381084e-6
3347 3346 -5.448143057340763e-7
3346 3347 -5.448143057336666e-7
3347 3347 2.0015459362191664e-6
3348 3347 -5.56260880901139e-7
3347 3348 -5.562608809020988e-7
3348 3348 2.0014553846075413e-6
3349 3348 -5.368985622590236e-7
3348 3349 -5.36898562258457e-7
3349 3349 1.9933480196714535e-6
3350 3349 5.644884112092924e-7
3349 3350 5.644884112092145e-7
3350 3350 2.032619370793889e-6
3351 3350 5.620164104269957e-7
3350 3351 5.620164104266656e-7
3351 3351 1.9991453858121613e-6
3352 3351 5.61143062439131e-7
3351 3352 5.611430624389413e-7
3352 3352 2.0223233979688136e-6
3353 3352 -5.513571496479722e-7
3352 3353 -5.513571496488247e-7
3353 3353 1.9841086178560577e-6
3354 3353 5.394447457563065e-7
3353 3354 5.394447457574309e-7
3354 3354 2.014056166994362e-6
3355 3354 -5.321804853959776e-7
3354 3355 -5.321804853962692e-7
3355 3355 1.9837979651167636e-6
3356 3355 5.387197313167131e-7
3355 3356 5.387197313163045e-7
3356 3356 2.015054616512896e-6
3357 3356 -5.453402202045487e-7
3356 3357 -5.453402202044758e-7
3357 3357 1.9882112729608654e-6
3358 3357 5.484909649607034e-7
3357 3358 5.484909649609814e-7
3358 3358 2.0272507932573923e-6
3359 3358 5.490976441103985e-7
3358 3359 5.490976441100316e-7
3359 3359 1.9889172863158158e-6
3360 3359 -5.530472280422023e-7
3359 3360 -5.530472280421822e-7
3360 3360 1.9685468262408544e-6
3361 3360 5.423299702672091e-7
3360 3361 5.423299702675415e-7
3361 3361 2.0277470129279724e-6
3362 3361 -5.4475035505853e-7
3361 3362 -5.447503550597149e-7
3362 3362 1.9751943154772895e-6
3363 3362 5.395178235719277e-7
3362 3363 5.39517823571119e-7
3363 3363 2.0169812886251343e-6
3364 3363 5.584976433815001e-7
3363 3364 5.584976433810952e-7
3364 3364 2.010473026192054e-6
3365 3364 -5.411156737045963e-7
3364 3365 -5.411156737046497e-7
3365 3365 1.9815727736901477e-6
3366 3365 5.385477046576534e-7
3365 3366 5.385477046567468e-7
3366 3366 2.0130757116718313e-6
3367 3366 -5.519545927646904e-7
3366 3367 -5.519545927639489e-7
3367 3367 1.9617053732787697e-6
3368 3367 -5.384338372216092e-7
3367 3368 -5.38433837220723e-7
3368 3368 2.022841019096746e-6
3369 3368 -5.347154928393713e-7
3368 3369 -5.347154928395446e-7
3369 3369 1.9720767146625324e-6
3370 3369 5.483369022169222e-7
3369 3370 5.483369022177201e-7
3370 3370 2.0129999407340945e-6
3371 3370 -5.492424075892021e-7
3370 3371 -5.492424075896427e-7
3371 3371 2.01175143552172e-6
3372 3371 5.299990697347898e-7
3371 3372 5.299990697342132e-7
3372 3372 2.0258098904550505e-6
3373 3372 5.4146542900934e-7
3372 3373 5.414654290094281e-7
3373 3373 1.9736118515792248e-6
3374 3373 -5.429871432563666e-7
3373 3374 -5.429871432558005e-7
3374 3374 2.008112257317079e-6
3375 3374 5.399804607048201e-7
3374 3375 5.399804607040113e-7
3375 3375 1.965841356846181e-6
3376 3375 -5.291743731666445e-7
3375 3376 -5.291743731663804e-7
3376 3376 2.0013352392748663e-6
3377 3376 -5.336349805120003e-7
3376 3377 -5.336349805109491e-7
3377 3377 2.0028831449634366e-6
3378 3377 -5.345630327410682e-7
3377 3378 -5.345630327419345e-7
3378 3378 1.9736513280838667e-6
3379 3378 -5.34614507103637e-7
3378 3379 -5.346145071041623e-7
3379 3379 1.9980707481688185e-6
3380 3379 -5.559093893316722e-7
3379 3380 -5.559093893314756e-7
3380 3380 2.020611594147563e-6
3381 3380 -5.163411278090372e-7
3380 3381 -5.163411278087907e-7
3381 3381 2.0070357370085397e-6
3382 3381 5.285267294510134e-7
3381 3382 5.285267294501096e-7
3382 3382 1.9959866552258237e-6
3383 3382 5.427700582006338e-7
3382 3383 5.427700581996865e-7
3383 3383 1.9746110413847717e-6
3384 3383 -5.404417650067032e-7
3383 3384 -5.404417650061967e-7
3384 3384 2.018893615159793e-6
3385 3384 5.346259161163821e-7
3384 3385 5.346259161168391e-7
3385 3385 2.0019585558719376e-6
3386 3385 -5.270931572943268e-7
3385 3386 -5.270931572939184e-7
3386 3386 1.9918882461047694e-6
3387 3386 5.303091799417558e-7
3386 3387 5.303091799423874e-7
3387 3387 2.013942994161081e-6
3388 3387 5.428713219425292e-7
3387 3388 5.428713219423802e-7
3388 3388 1.9835326434792196e-6
3389 3388 -5.356164663148454e-7
3388 3389 -5.356164663151856e-7
3389 3389 2.0279958362490527e-6
3390 3389 5.264872366702588e-7
3389 3390 5.264872366699581e-7
3390 3390 2.0065186715282024e-6
3391 3390 -5.282607880892469e-7
3390 3391 -5.282607880881346e-7
3391 3391 1.999156720455712e-6
3392 3391 -5.305591888068563e-7
3391 3392 -5.305591888068099e-7
3392 3392 2.0098301520128985e-6
3393 3392 -5.253231918245947e-7
3392 3393 -5.253231918247257e-7
3393 3393 1.9940499458449074e-6
3394 3393 5.297661097721779e-7
3393 3394 5.297661097722187e-7
3394 3394 2.0033445451162634e-6
3395 3394 -5.308147422975217e-7
3394 3395 -5.308147422964438e-7
3395 3395 2.0048878033012223e-6
3396 3395 -5.332191627874735e-7
3395 3396 -5.332191627882776e-7
3396 3396 1.9365935550300204e-6
3397 3396 5.291968850634484e-7
3396 3397 5.291968850630244e-7
3397 3397 1.992162706273119e-6
3398 3397 -5.349204038549245e-7
3397 3398 -5.34920403855038e-7
3398 3398 2.016218216531216e-6
3399 3398 -5.26126008569001e-7
3398 3399 -5.26126008568804e-7
3399 3399 2.003066412651685e-6
3400 3399 -5.151313241880141e-7
3399 3400 -5.151313241876783e-7
3400 3400 2.006193021137137e-6
3401 3400 5.232914079978973e-7
3400 3401 5.232914079975974e-7
3401 3401 1.9853854938256706e-6
3402 3401 -5.16560652794995e-7
3401 3402 -5.165606527949568e-7
3402 3402 1.9800031727619254e-6
3403 3402 -5.206531455254905e-7
3402 3403 -5.206531455249207e-7
3403 3403 1.9742157124085828e-6
3404 3403 -5.229666756224127e-7
3403 3404 -5.229666756227077e-7
3404 3404 2.0454168920192164e-6
3405 3404 5.477594017794539e-7
3404 3405 5.477594017797914e-7
3405 3405 2.0116943335528514e-6
3406 3405 5.326909051325514e-7
3405 3406 5.32690905132249e-7
3406 3406 1.982658211763817e-6
3407 3406 -5.333745553108745e-7
3406 3407 -5.333745553098063e-7
3407 3407 1.9958703884608016e-6
3408 3407 -5.144415619597898e-7
3407 3408 -5.14441561959482e-7
3408 3408 2.0004720204027916e-6
3409 3408 -5.381050221749806e-7
3408 3409 -5.381050221750308e-7
3409 3409 2.0210966686387236e-6
3410 3409 -5.138954115475256e-7
3409 3410 -5.138954115465626e-7
3410 3410 1.9836764380198185e-6
3411 3410 5.301510564507216e-7
3410 3411 5.301510564501245e-7
3411 3411 1.9992694230058274e-6
3412 3411 5.047331093981917e-7
3411 3412 5.047331093981924e-7
3412 3412 2.0199624395557027e-6
3413 3412 -5.178008207488036e-7
3412 3413 -5.178008207495646e-7
3413 3413 2.0130589839235922e-6
3414 3413 -5.045377884561739e-7
3413 3414 -5.045377884551207e-7
3414 3414 1.9913737668226672e-6
3415 3414 -5.152466124053003e-7
3414 3415 -5.152466124058301e-7
3415 3415 2.0441476983694907e-6
3416 3415 5.275154709195653e-7
3415 3416 5.275154709186698e-7
3416 3416 2.0021666792452957e-6
3417 3416 5.188460645755871e-7
3416 3417 5.18846064576028e-7
3417 3417 1.9987123098753045e-6
3418 3417 -5.193356617974984e-7
3417 3418 -5.193356617971561e-7
3418 3418 1.972157857539465e-6
3419 3418 5.113682917955526e-7
3418 3419 5.113682917951627e-7
3419 3419 1.9822257080907176e-6
3420 3419 5.147671957222187e-7
3419 3420 5.147671957225926e-7
3420 3420 1.995184003070405e-6
3421 3420 -5.187985517366756e-7
3420 3421 -5.187985517368324e-7
3421 3421 2.0117969642988658e-6
3422 3421 5.229943752384457e-7
3421 3422 5.229943752382811e-7
3422 3422 1.9868658565434773e-6
3423 3422 -5.099069701281767e-7
3422 3423 -5.099069701275826e-7
3423 3423 1.997426674165734e-6
3424 3423 4.948630364407557e-7
3423 3424 4.948630364401784e-7
3424 3424 1.9910471130625388e-6
3425 3424 -5.140770447379734e-7
3424 3425 -5.140770447376378e-7
3425 3425 2.0281106242795112e-6
3426 3425 5.172213573216273e-7
3425 3426 5.172213573218491e-7
3426 3426 2.0102214472099102e-6
3427 3426 -5.013714477602307e-7
3426 3427 -5.013714477604561e-7
3427 3427 1.9985176878251044e-6
3428 3427 5.1591844910972e-7
3427 3428 5.159184491090658e-7
3428 3428 2.0052599967926808e-6
3429 3428 5.173155368788734e-7
3428 3429 5.173155368787854e-7
3429 3429 2.0413092677251124e-6
3430 3429 -5.310210247545804e-7
3429 3430 -5.31021024755442e-7
3430 3430 1.9888638878291496e-6
3431 3430 -5.097836926918257e-7
3430 3431 -5.097836926925834e-7
3431 3431 1.988664786963191e-6
3432 3431 5.221324203628779e-7
3431 3432 5.221324203635897e-7
3432 3432 1.986640282508962e-6
3433 3432 5.226233070334144e-7
3432 3433 5.226233070342314e-7
3433 3433 2.019841577322376e-6
3434 3433 5.084261138546996e-7
3433 3434 5.084261138546421e-7
3434 3434 1.978735955558427e-6
3435 3434 5.146661623621774e-7
3434 3435 5.146661623623797e-7
3435 3435 1.999799478805003e-6
3436 3435 -5.081253750441509e-7
3435 3436 -5.081253750431638e-7
3436 3436 1.972669815959019e-6
3437 3436 -4.970824907269784e-7
3436 3437 -4.97082490726813e-7
3437 3437 1.9938283798084167e-6
3438 3437 5.049819120697196e-7
3437 3438 5.049819120708661e-7
3438 3438 1.9906768887004178e-6
3439 3438 5.10073447846147e-7
3438 3439 5.100734478460683e-7
3439 3439 1.998019008219806e-6
3440 3439 5.087744761127454e-7
3439 3440 5.087744761119633e-7
3440 3440 1.983028800610654e-6
3441 3440 -5.230604451716857e-7
3440 3441 -5.230604451723601e-7
3441 3441 1.9949674168169064e-6
3442 3441 -5.083618961214076e-7
3441 3442 -5.083618961215623e-7
3442 3442 2.016195037944477e-6
3443 3442 -5.135490408488417e-7
3442 3443 -5.135490408499675e-7
3443 3443 1.9888442155884057e-6
3444 3443 4.812038778003112e-7
3443 3444 4.81203877800329e-7
3444 3444 2.0264108425324317e-6
3445 3444 4.924151148332811e-7
3444 3445 4.924151148323222e-7
3445 3445 2.0140655215427487e-6
3446 3445 -5.062223862445564e-7
3445 3446 -5.06222386244943e-7
3446 3446 2.0183851343007404e-6
3447 3446 -5.075203905927166e-7
3446 3447 -5.075203905927252e-7
3447 3447 1.992940285344233e-6
3448 3447 5.095354470142201e-7
3447 3448 5.095354470143172e-7
3448 3448 2.002152178363135e-6
3449 3448 -5.064486305398612e-7
3448 3449 -5.064486305406939e-7
3449 3449 2.0305103702612694e-6
3450 3449 5.055805772113807e-7
3449 3450 5.055805772110832e-7
3450 3450 1.9731154196796354e-6
3451 3450 -5.060681195981005e-7
3450 3451 -5.060681195976124e-7
3451 3451 2.0202498162997624e-6
3452 3451 5.034203151021252e-7
3451 3452 5.034203151028338e-7
3452 3452 1.987573382614492e-6
3453 3452 4.887857271923203e-7
3452 3453 4.887857271932297e-7
3453 3453 2.013900515343474e-6
3454 3453 -5.113243010834311e-7
3453 3454 -5.113243010831388e-7
3454 3454 2.0221673251022918e-6
3455 3454 -5.009133447403401e-7
3454 3455 -5.009133447401903e-7
3455 3455 1.991132319425427e-6
3456 3455 5.029733020678398e-7
3455 3456 5.029733020679448e-7
3456 3456 2.0208417671065125e-6
3457 3456 5.194156933872694e-7
3456 3457 5.194156933864212e-7
3457 3457 2.0268056211554934e-6
3458 3457 5.068712481364201e-7
3457 3458 5.06871248136909e-7
3458 3458 1.9729643173237983e-6
3459 3458 4.790788597440887e-7
3458 3459 4.790788597444206e-7
3459 3459 2.025424338369336e-6
3460 3459 -5.225046611253264e-7
3459 3460 -5.225046611254171e-7
3460 3460 2.0320736872158684e-6
3461 3460 5.15602510327203e-7
3460 3461 5.156025103273234e-7
3461 3461 1.996057132540482e-6
3462 3461 5.066740136320941e-7
3461 3462 5.066740136319569e-7
3462 3462 1.9625467661348424e-6
3463 3462 5.15030284732983e-7
3462 3463 5.150302847328984e-7
3463 3463 1.9853416773506663e-6
3464 3463 -5.049315953364447e-7
3463 3464 -5.049315953363142e-7
3464 3464 1.978827319433728e-6
3465 3464 5.006606479473466e-7
3464 3465 5.006606479464876e-7
3465 3465 2.0039093553289983e-6
3466 3465 -4.832298656624747e-7
3465 3466 -4.832298656623977e-7
3466 3466 1.9619495541156515e-6
3467 3466 4.971212627988165e-7
3466 3467 4.971212627978961e-7
3467 3467 1.9944546142143646e-6
3468 3467 -4.888084068610254e-7
3467 3468 -4.888084068619421e-7
3468 3468 2.0006717599044786e-6
3469 3468 -5.017599332096355e-7
3468 3469 -5.017599332094701e-7
3469 3469 1.9707338985526657e-6
3470 3469 5.096789728948172e-7
3469 3470 5.096789728946145e-7
3470 3470 1.9908231156936126e-6
3471 3470 -4.949941850356531e-7
3470 3471 -4.949941850361164e-7
3471 3471 2.0396500375299073e-6
3472 3471 5.100532368715913e-7
3471 3472 5.100532368709724e-7
3472 3472 1.996519529837362e-6
3473 3472 -4.987203962386612e-7
3472 3473 -4.987203962394102e-7
3473 3473 1.9976965122679928e-6
3474 3473 5.052981842520704e-7
3473 3474 5.052981842522419e-7
3474 3474 2.004007271996843e-6
3475 3474 5.029972216319697e-7
3474 3475 5.029972216326515e-7
3475 3475 1.995408901006265e-6
3476 3475 5.076726124355335e-7
3475 3476 5.076726124359453e-7
3476 3476 2.0263991624480054e-6
3477 3476 -4.838910548460774e-7
3476 3477 -4.838910548462419e-7
3477 3477 1.998771609725405e-6
3478 3477 -5.009260086098854e-7
3477 3478 -5.009260086099715e-7
3478 3478 1.9841293641226957e-6
3479 3478 -4.92012676817842e-7
3478 3479 -4.920126768183592e-7
3479 3479 1.9921735453231763e-6
3480 3479 -4.810778837110148e-7
3479 3480 -4.810778837107325e-7
3480 3480 1.9771165716483704e-6
3481 3480 -5.112515836222287e-7
3480 3481 -5.112515836216918e-7
3481 3481 2.0051750809746314e-6
3482 3481 4.912198457130972e-7
3481 3482 4.912198457134182e-7
3482 3482 1.9855186736157004e-6
3483 3482 4.771126778761951e-7
3482 3483 4.771126778756382e-7
3483 3483 1.9782478181693024e-6
3484 3483 4.96011077429132e-7
3483 3484 4.960110774297952e-7
3484 3484 1.9970002490645728e-6
3485 3484 4.89620663559681e-7
3484 3485 4.896206635603029e-7
3485 3485 2.0117778149129738e-6
3486 3485 4.926043937552459e-7
3485 3486 4.926043937552028e-7
3486 3486 1.9872622434070776e-6
3487 3486 4.8095250786628e-7
3486 3487 4.809525078664478e-7
3487 3487 2.0066493904193908e-6
3488 3487 -4.818000041995966e-7
3487 3488 -4.818000041992011e-7
3488 3488 1.9957676533474676e-6
3489 3488 4.842209560697169e-7
3488 3489 4.842209560696051e-7
3489 3489 1.9734738115005162e-6
3490 3489 -5.058314044655581e-7
3489 3490 -5.05831404465107e-7
3490 3490 1.9958844660002473e-6
3491 3490 4.871256590160486e-7
3490 3491 4.871256590161287e-7
3491 3491 2.0071785493377853e-6
3492 3491 4.811327524875491e-7
3491 3492 4.811327524883752e-7
3492 3492 2.018218711475787e-6
3493 3492 4.698874430301967e-7
3492 3493 4.698874430299548e-7
3493 3493 2.000571888702239e-6
3494 3493 4.845257405055131e-7
3493 3494 4.845257405051913e-7
3494 3494 2.0072927523377254e-6
3495 3494 5.048782366792915e-7
3494 3495 5.048782366791003e-7
3495 3495 2.0054289815424775e-6
3496 3495 4.918160683361645e-7
3495 3496 4.918160683367727e-7
3496 3496 2.003676453770189e-6
3497 3496 4.899134527089606e-7
3496 3497 4.899134527086386e-7
3497 3497 1.9917252367001494e-6
3498 3497 -4.860783875183626e-7
3497 3498 -4.860783875184324e-7
3498 3498 1.9958598238574077e-6
3499 3498 4.972625430144836e-7
3498 3499 4.972625430147997e-7
3499 3499 2.0083917465833076e-6
3500 3499 4.833595908293398e-7
3499 3500 4.833595908298513e-7
3500 3500 2.0047494548247726e-6
3501 3500 4.952631612116242e-7
3500 3501 4.952631612112229e-7
3501 3501 2.023143561834862e-6
3502 3501 -4.796280318671206e-7
3501 3502 -4.796280318667966e-7
3502 3502 2.050639972136869e-6
3503 3502 4.842076926854986e-7
3502 3503 4.842076926846971e-7
3503 3503 2.004850699902342e-6
3504 3503 -4.790475629745426e-7
3503 3504 -4.790475629744542e-7
3504 3504 1.996110220846112e-6
3505 3504 -4.789319911935154e-7
3504 3505 -4.789319911931295e-7
3505 3505 1.956924588059739e-6
3506 3505 4.855006197458079e-7
3505 3506 4.855006197455365e-7
3506 3506 2.0376324908857628e-6
3507 3506 -4.766721574001404e-7
3506 3507 -4.766721573992115e-7
3507 3507 2.017211590421542e-6
3508 3507 -5.011148228195802e-7
3507 3508 -5.011148228205915e-7
3508 3508 2.0150052372295413e-6
3509 3508 4.669377038465816e-7
3508 3509 4.6693770384688927e-7
3509 3509 1.9989123908466e-6
3510 3509 4.677544087709308e-7
3509 3510 4.677544087706736e-7
3510 3510 2.050469767716848e-6
3511 3510 4.959861195730904e-7
3510 3511 4.959861195731686e-7
3511 3511 2.001941683600841e-6
3512 3511 4.778444057963716e-7
3511 3512 4.778444057973011e-7
3512 3512 1.9819349804573502e-6
3513 3512 4.808885121073611e-7
3512 3513 4.808885121069448e-7
3513 3513 2.008012019757577e-6
3514 3513 4.945256327860516e-7
3513 3514 4.945256327860656e-7
3514 3514 2.020575581665307e-6
3515 3514 4.6649318228475304e-7
3514 3515 4.664931822843324e-7
3515 3515 1.9978868255318096e-6
3516 3515 -4.737792640526652e-7
3515 3516 -4.737792640522365e-7
3516 3516 1.981020213907386e-6
3517 3516 4.702395874806069e-7
3516 3517 4.7023958748050077e-7
3517 3517 1.973687620597515e-6
3518 3517 4.696639774457709e-7
3517 3518 4.6966397744488363e-7
3518 3518 2.0199245585045867e-6
3519 3518 -4.7450025862922716e-7
3518 3519 -4.7450025862941457e-7
3519 3519 2.007200530241976e-6
3520 3519 5.13414985405159e-7
3519 3520 5.134149854058987e-7
3520 3520 2.027140958733467e-6
3521 3520 -4.7503044273372885e-7
3520 3521 -4.7503044273305397e-7
3521 3521 1.96845589077839e-6
3522 3521 4.869185777086539e-7
3521 3522 4.869185777073454e-7
3522 3522 1.9782545071617655e-6
3523 3522 4.6953599676372576e-7
3522 3523 4.695359967627918e-7
3523 3523 2.0122856168550595e-6
3524 3523 -4.495582423345036e-7
3523 3524 -4.495582423345036e-7
3524 3524 1.984011717310068e-6
3525 3524 4.805752300304839e-7
3524 3525 4.805752300298657e-7
3525 3525 1.9815194961996283e-6
3526 3525 -4.7284077394691946e-7
3525 3526 -4.728407739468215e-7
3526 3526 2.002239293020706e-6
3527 3526 -4.771032847746393e-7
3526 3527 -4.771032847747553e-7
3527 3527 1.9808112290885604e-6
3528 3527 4.695102602411841e-7
3527 3528 4.6951026024183353e-7
3528 3528 2.015382628749435e-6
3529 3528 -4.58079499415692e-7
3528 3529 -4.5807949941500736e-7
3529 3529 1.9956959332126592e-6
3530 3529 4.665694156222576e-7
3529 3530 4.665694156215647e-7
3530 3530 2.000373240739494e-6
3531 3530 4.635495358670181e-7
3530 3531 4.635495358668625e-7
3531 3531 1.97109270610836e-6
3532 3531 4.714851262038884e-7
3531 3532 4.7148512620332475e-7
3532 3532 1.9510798294874372e-6
3533 3532 -4.671588062668532e-7
3532 3533 -4.6715880626744633e-7
3533 3533 2.003772039682108e-6
3534 3533 4.641142278323261e-7
3533 3534 4.641142278327018e-7
3534 3534 2.0157013806431457e-6
3535 3534 -4.651824714345499e-7
3534 3535 -4.65182471435123e-7
3535 3535 1.9911409861823024e-6
3536 3535 -4.594537723129761e-7
3535 3536 -4.594537723133138e-7
3536 3536 1.9997819470735645e-6
3537 3536 4.567584434789221e-7
3536 3537 4.5675844347899833e-7
3537 3537 1.973143752380744e-6
3538 3537 -4.826750903079023e-7
3537 3538 -4.826750903086629e-7
3538 3538 1.992833484150976e-6
3539 3538 4.6532077389611674e-7
3538 3539 4.6532077389675504e-7
3539 3539 2.0198423251909685e-6
3540 3539 -4.4700931571703645e-7
3539 3540 -4.470093157166917e-7
3540 3540 1.9771550637732467e-6
3541 3540 -4.780551334851191e-7
3540 3541 -4.78055133485591e-7
3541 3541 2.017596091299572e-6
3542 3541 4.474273341905992e-7
3541 3542 4.474273341905823e-7
3542 3542 2.0135858470000738e-6
3543 3542 4.629196925747281e-7
3542 3543 4.6291969257414287e-7
3543 3543 2.00360329533178e-6
3544 3543 -4.648321835647972e-7
3543 3544 -4.648321835648969e-7
3544 3544 2.0130951779184027e-6
3545 3544 4.762626125967244e-7
3544 3545 4.7626261259617504e-7
3545 3545 1.986981664775751e-6
3546 3545 -4.7027417678017584e-7
3545 3546 -4.702741767792237e-7
3546 3546 2.0150719634862893e-6
3547 3546 -4.631091093125075e-7
3546 3547 -4.6310910931261304e-7
3547 3547 2.035212396059936e-6
3548 3547 4.5596460853426836e-7
3547 3548 4.5596460853559185e-7
3548 3548 2.0080085200450427e-6
3549 3548 4.6443747413719693e-7
3548 3549 4.644374741380799e-7
3549 3549 2.004026468839201e-6
3550 3549 4.716200121730951e-7
3549 3550 4.7162001217266494e-7
3550 3550 1.95755534070065e-6
3551 3550 4.569981345192702e-7
3550 3551 4.5699813451890703e-7
3551 3551 2.0166641544981798e-6
3552 3551 4.5736898833015725e-7
3551 3552 4.573689883299571e-7
3552 3552 1.9719386053270833e-6
3553 3552 -4.573294959816736e-7
3552 3553 -4.573294959819974e-7
3553 3553 2.0250959661643272e-6
3554 3553 -4.556978633747167e-7
3553 3554 -4.5569786337429043e-7
3554 3554 1.9959100689021256e-6
3555 3554 -4.482600381768944e-7
3554 3555 -4.48260038176665e-7
3555 3555 1.9773817620405284e-6
3556 3555 -4.461779322127115e-7
3555 3556 -4.4617793221255636e-7
3556 3556 1.9854989426011707e-6
3557 3556 -4.5807170964201363e-7
3556 3557 -4.58071709641953e-7
3557 3557 2.0098736482615e-6
3558 3557 -4.5878782605449587e-7
3557 3558 -4.5878782605433705e-7
3558 3558 1.9840105595504624e-6
3559 3558 4.591750617133403e-7
3558 3559 4.5917506171310543e-7
3559 3559 2.0324169893534663e-6
3560 3559 4.807259946643786e-7
3559 3560 4.807259946641089e-7
3560 3560 2.0246447622194497e-6
3561 3560 4.4909612405249046e-7
3560 3561 4.490961240522591e-7
3561 3561 2.0003673394566212e-6
3562 3561 -4.5255067659484485e-7
3561 3562 -4.525506765953364e-7
3562 3562 2.008118044102207e-6
3563 3562 4.636589373720618e-7
3562 3563 4.636589373727427e-7
3563 3563 1.944492434509703e-6
3564 3563 -4.3356777196399094e-7
3563 3564 -4.3356777196396007e-7
3564 3564 1.9752953578356263e-6
3565 3564 4.418783004188566e-7
3564 3565 4.418783004195129e-7
3565 3565 2.0299517681410712e-6
3566 3565 4.710043062190522e-7
3565 3566 4.7100430621861685e-7
3566 3566 1.9618747874696683e-6
3567 3566 4.230915189225261e-7
3566 3567 4.230915189230727e-7
3567 3567 2.0024135618029454e-6
3568 3567 4.7262011973029276e-7
3567 3568 4.726201197290014e-7
3568 3568 1.9830597946714864e-6
3569 3568 4.573878843701179e-7
3568 3569 4.5738788436928947e-7
3569 3569 2.0442220495270553e-6
3570 3569 -4.4485310549317477e-7
3569 3570 -4.448531054934019e-7
3570 3570 2.0109753336268832e-6
3571 3570 4.47223024253268e-7
3570 3571 4.4722302425341353e-7
3571 3571 1.960926265278242e-6
3572 3571 -4.238991537697647e-7
3571 3572 -4.2389915376919954e-7
3572 3572 1.9707660311286414e-6
3573 3572 -4.393027550247012e-7
3572 3573 -4.393027550254184e-7
3573 3573 2.017020010410245e-6
3574 3573 -4.4986830051631753e-7
3573 3574 -4.4986830051470684e-7
3574 3574 1.995496964112369e-6
3575 3574 -4.4124129382589516e-7
3574 3575 -4.412412938256653e-7
3575 3575 2.016029875621102e-6
3576 3575 4.477083508342386e-7
3575 3576 4.477083508333939e-7
3576 3576 1.983132920964337e-6
3577 3576 -4.529575516500498e-7
3576 3577 -4.5295755164991336e-7
3577 3577 2.0297622274587004e-6
3578 3577 -4.483941783291875e-7
3577 3578 -4.4839417832920483e-7
3578 3578 1.9802720197530497e-6
3579 3578 4.552160229348852e-7
3578 3579 4.552160229344928e-7
3579 3579 1.9861103642878635e-6
3580 3579 -4.3721539451082054e-7
3579 3580 -4.3721539451095247e-7
3580 3580 1.9683059844442027e-6
3581 3580 -4.285241786842552e-7
3580 3581 -4.2852417868468557e-7
3581 3581 1.98043968420506e-6
3582 3581 4.5198557737592514e-7
3581 3582 4.519855773769903e-7
3582 3582 1.981704803990428e-6
3583 3582 4.4751269490005413e-7
3582 3583 4.4751269490083473e-7
3583 3583 1.97817568969567e-6
3584 3583 -4.4592187597002693e-7
3583 3584 -4.459218759704316e-7
3584 3584 2.0133112683285307e-6
3585 3584 -4.289905766097777e-7
3584 3585 -4.2899057660926927e-7
3585 3585 1.9688885522439454e-6
3586 3585 4.486129806179923e-7
3585 3586 4.4861298061795606e-7
3586 3586 2.0424453400914993e-6
3587 3586 4.571069893071553e-7
3586 3587 4.571069893068603e-7
3587 3587 1.9920053739910155e-6
3588 3587 -4.40827282207138e-7
3587 3588 -4.4082728220692374e-7
3588 3588 2.026955331130169e-6
3589 3588 4.390945972490894e-7
3588 3589 4.3909459724896077e-7
3589 3589 1.9905667121462568e-6
3590 3589 -4.4676902325048043e-7
3589 3590 -4.467690232513667e-7
3590 3590 1.9566513338135254e-6
3591 3590 4.190794838096388e-7
3590 3591 4.1907948380972363e-7
3591 3591 2.027352129711921e-6
3592 3591 -4.4320441658747344e-7
3591 3592 -4.432044165869973e-7
3592 3592 1.9963184761135058e-6
3593 3592 -4.3047523546672865e-7
3592 3593 -4.304752354670183e-7
3593 3593 2.0090010628414383e-6
3594 3593 -4.543484035436516e-7
3593 3594 -4.5434840354416956e-7
3594 3594 2.0053070843200264e-6
3595 3594 4.344151467214807e-7
3594 3595 4.3441514672102225e-7
3595 3595 2.065963784180882e-6
3596 3595 4.594393533888776e-7
3595 3596 4.594393533889995e-7
3596 3596 2.002583578447596e-6
3597 3596 -4.4393970646291635e-7
3596 3597 -4.439397064624893e-7
3597 3597 2.0212948801554217e-6
3598 3597 -4.417758954565591e-7
3597 3598 -4.417758954560725e-7
3598 3598 2.0193999679692912e-6
3599 3598 4.475835534714042e-7
3598 3599 4.475835534716613e-7
3599 3599 1.9730415895885147e-6
3600 3599 4.472000034437029e-7
3599 3600 4.472000034436087e-7
3600 3600 2.028904066648702e-6
3601 3600 4.421962661009352e-7
3600 3601 4.4219626610171413e-7
3601 3601 2.0133684710375326e-6
3602 3601 4.222640949643407e-7
3601 3602 4.222640949643497e-7
3602 3602 1.9806656683542977e-6
3603 3602 4.5800267963974093e-7
3602 3603 4.58002679640058e-7
3603 3603 1.993896730981746e-6
3604 3603 4.314623252790871e-7
3603 3604 4.314623252789503e-7
3604 3604 1.988439906288658e-6
3605 3604 -4.2023500461969856e-7
3604 3605 -4.202350046188323e-7
3605 3605 2.0129852010566263e-6
3606 3605 -4.456831968089539e-7
3605 3606 -4.456831968087124e-7
3606 3606 1.993781824508182e-6
3607 3606 4.195196766724639e-7
3606 3607 4.1951967667187953e-7
3607 3607 1.9954317896504374e-6
3608 3607 4.336799276126905e-7
3607 3608 4.3367992761274994e-7
3608 3608 1.978829913368176e-6
3609 3608 -4.3303461214728856e-7
3608 3609 -4.3303461214663216e-7
3609 3609 1.9763596220411024e-6
3610 3609 -4.212056562052196e-7
3609 3610 -4.2120565620510407e-7
3610 3610 1.9877357672906736e-6
3611 3610 -4.19470854574392e-7
3610 3611 -4.1947085457454844e-7
3611 3611 2.018207482553024e-6
3612 3611 -4.28222501698613e-7
3611 3612 -4.282225016982339e-7
3612 3612 1.9945865344736134e-6
3613 3612 -4.406451124365215e-7
3612 3613 -4.4064511243620336e-7
3613 3613 2.0309938303234035e-6
3614 3613 4.25447921572309e-7
3613 3614 4.2544792157231276e-7
3614 3614 1.97186597947571e-6
3615 3614 4.3009735039210414e-7
3614 3615 4.3009735039165823e-7
3615 3615 1.98107565070645e-6
3616 3615 4.14892876069285e-7
3615 3616 4.148928760695834e-7
3616 3616 1.9636560405641355e-6
3617 3616 4.3281138410569977e-7
3616 3617 4.3281138410524873e-7
3617 3617 1.9789420585827478e-6
3618 3617 4.322100971358296e-7
3617 3618 4.3221009713523094e-7
3618 3618 2.0191611214380414e-6
3619 3618 4.1227082069023765e-7
3618 3619 4.1227082068969476e-7
3619 3619 2.016466211201643e-6
3620 3619 4.224206670476155e-7
3619 3620 4.224206670470603e-7
3620 3620 1.989161460163952e-6
3621 3620 4.097010269937319e-7
3620 3621 4.0970102699362157e-7
3621 3621 2.006222074510232e-6
3622 3621 4.2248911409909934e-7
3621 3622 4.224891140981358e-7
3622 3622 1.9975315279877027e-6
3623 3622 4.1477366587324714e-7
3622 3623 4.1477366587281966e-7
3623 3623 2.00685884320584e-6
3624 3623 -4.284855245374722e-7
3623 3624 -4.2848552453734786e-7
3624 3624 2.0290755488689614e-6
3625 3624 -4.240778974180567e-7
3624 3625 -4.2407789741856844e-7
3625 3625 2.0109894538339705e-6
3626 3625 -4.1502150357987756e-7
3625 3626 -4.150215035804529e-7
3626 3626 2.026715978586913e-6
3627 3626 -4.285621569913743e-7
3626 3627 -4.2856215699145297e-7
3627 3627 1.9996941556432925e-6
3628 3627 -4.296466645229302e-7
3627 3628 -4.2964666452343333e-7
3628 3628 2.004382712855894e-6
3629 3628 -4.236688157613422e-7
3628 3629 -4.2366881576155506e-7
3629 3629 2.0374417971162706e-6
3630 3629 -4.1920703175555544e-7
3629 3630 -4.192070317576007e-7
3630 3630 2.0159594665400923e-6
3631 3630 -4.2999958590385704e-7
3630 3631 -4.2999958590350367e-7
3631 3631 2.013756240188502e-6
3632 3631 4.177252211189827e-7
3631 3632 4.1772522111859186e-7
3632 3632 2.013748954329574e-6
3633 3632 -4.246307448370043e-7
3632 3633 -4.2463074483694877e-7
3633 3633 2.0091437620963446e-6
3634 3633 -4.1510398928931545e-7
3633 3634 -4.1510398928870813e-7
3634 3634 2.030352412179381e-6
3635 3634 4.269720551119939e-7
3634 3635 4.269720551114102e-7
3635 3635 2.037930695197136e-6
3636 3635 -4.0660383747310946e-7
3635 3636 -4.066038374735175e-7
3636 3636 2.0031067992337965e-6
3637 3636 -4.1264580734187564e-7
3636 3637 -4.1264580734153514e-7
3637 3637 2.0161564042717634e-6
3638 3637 -4.086114787368656e-7
3637 3638 -4.086114787367065e-7
3638 3638 1.987461375748352e-6
3639 3638 -4.026294063139942e-7
3638 3639 -4.0262940631495016e-7
3639 3639 2.0000844490433773e-6
3640 3639 4.2170486959379207e-7
3639 3640 4.217048695944693e-7
3640 3640 1.981557473597349e-6
3641 3640 -4.204884091750402e-7
3640 3641 -4.2048840917537095e-7
3641 3641 2.004363523453543e-6
3642 3641 -4.192231637943336e-7
3641 3642 -4.192231637938412e-7
3642 3642 2.000406258057721e-6
3643 3642 -4.034588542520655e-7
3642 3643 -4.034588542516389e-7
3643 3643 1.9976476772613713e-6
3644 3643 -4.3283456673869525e-7
3643 3644 -4.328345667383866e-7
3644 3644 1.9719461727594217e-6
3645 3644 -4.195616539625708e-7
3644 3645 -4.195616539629079e-7
3645 3645 1.9785919180476737e-6
3646 3645 4.122592966597205e-7
3645 3646 4.122592966591583e-7
3646 3646 1.9856212547782004e-6
3647 3646 -4.239336952655096e-7
3646 3647 -4.239336952656253e-7
3647 3647 2.0109094636941704e-6
3648 3647 4.1535028210939154e-7
3647 3648 4.1535028210936226e-7
3648 3648 1.9878819455013513e-6
3649 3648 -4.2289400331129156e-7
3648 3649 -4.2289400331155795e-7
3649 3649 2.049247193623461e-6
3650 3649 -4.038784131970277e-7
3649 3650 -4.038784131982664e-7
3650 3650 2.0356589373849225e-6
3651 3650 4.103207800694438e-7
3650 3651 4.103207800692926e-7
3651 3651 1.9756309526915688e-6
3652 3651 4.0389281780499253e-7
3651 3652 4.038928178049215e-7
3652 3652 2.006338244394987e-6
3653 3652 -3.960813295093228e-7
3652 3653 -3.96081329509869e-7
3653 3653 2.0107583020478332e-6
3654 3653 -3.967555429990352e-7
3653 3654 -3.967555429992532e-7
3654 3654 2.0020286730035573e-6
3655 3654 -3.978406396567967e-7
3654 3655 -3.9784063965636134e-7
3655 3655 2.006413491608144e-6
3656 3655 3.973390062643404e-7
3655 3656 3.9733900626467136e-7
3656 3656 2.018736557877905e-6
3657 3656 4.066241937731527e-7
3656 3657 4.066241937730242e-7
3657 3657 1.9844291371703516e-6
3658 3657 4.0846023516267834e-7
3657 3658 4.084602351633174e-7
3658 3658 2.0085703977001026e-6
3659 3658 4.060262648164367e-7
3658 3659 4.06026264816972e-7
3659 3659 2.0279897170987083e-6
3660 3659 4.0006953380789474e-7
3659 3660 4.0006953380765905e-7
3660 3660 2.0092901060745544e-6
3661 3660 -3.994135169941151e-7
3660 3661 -3.99413516993428e-7
3661 3661 1.9948167554752717e-6
3662 3661 -4.1379437719824324e-7
3661 3662 -4.1379437719844213e-7
3662 3662 2.0067604170554234e-6
3663 3662 -3.894316170681295e-7
3662 3663 -3.8943161706857664e-7
3663 3663 2.0094462931859236e-6
3664 3663 -4.0844397769951014e-7
3663 3664 -4.084439776994129e-7
3664 3664 2.029936639448451e-6
3665 3664 -3.997149461444159e-7
3664 3665 -3.9971494614461136e-7
3665 3665 1.94831533573841e-6
3666 3665 4.055844215019235e-7
3665 3666 4.055844215024795e-7
3666 3666 1.984537379114664e-6
3667 3666 3.980176142292672e-7
3666 3667 3.980176142288003e-7
3667 3667 2.0092296921206483e-6
3668 3667 4.1908033054459734e-7
3667 3668 4.1908033054485315e-7
3668 3668 1.983356836116289e-6
3669 3668 -3.9767818146887103e-7
3668 3669 -3.976781814683585e-7
3669 3669 1.972223141589262e-6
3670 3669 -4.0737642943633627e-7
3669 3670 -4.073764294369186e-7
3670 3670 2.034802951165004e-6
3671 3670 4.0566696368681375e-7
3670 3671 4.056669636869521e-7
3671 3671 1.977603470307495e-6
3672 3671 -4.017123533422182e-7
3671 3672 -4.017123533418062e-7
3672 3672 1.9964240175274926e-6
3673 3672 -3.915653628522478e-7
3672 3673 -3.915653628524422e-7
3673 3673 2.0335599222308736e-6
3674 3673 3.900220515934711e-7
3673 3674 3.900220515946109e-7
3674 3674 1.986528236241362e-6
3675 3674 -3.963813521959428e-7
3674 3675 -3.9638135219487066e-7
3675 3675 1.9770870753307697e-6
3676 3675 4.208181284755571e-7
3675 3676 4.2081812847626054e-7
3676 3676 1.9923805770258666e-6
3677 3676 -4.000199831639447e-7
3676 3677 -4.0001998316408865e-7
3677 3677 1.9558143777342115e-6
3678 3677 3.923900685581688e-7
3677 3678 3.923900685575861e-7
3678 3678 1.975509938621332e-6
3679 3678 -4.0626502038546954e-7
3678 3679 -4.0626502038530855e-7
3679 3679 1.9860085181506405e-6
3680 3679 -3.907648895446765e-7
3679 3680 -3.907648895443857e-7
3680 3680 1.9878398445563075e-6
3681 3680 -4.0163055739914833e-7
3680 3681 -4.0163055739890327e-7
3681 3681 1.9862819668404777e-6
3682 3681 3.617499670964314e-7
3681 3682 3.617499670959671e-7
3682 3682 1.9720935574470796e-6
3683 3682 3.700653437069332e-7
3682 3683 3.7006534370717624e-7
3683 3683 2.020269072715249e-6
3684 3683 3.7521475765527245e-7
3683 3684 3.7521475765608396e-7
3684 3684 2.03624361987364e-6
3685 3684 3.6699245463420066e-7
3684 3685 3.669924546343056e-7
3685 3685 2.0029198044087016e-6
3686 3685 -3.980361421489398e-7
3685 3686 -3.9803614215046864e-7
3686 3686 1.9640732303930966e-6
3687 3686 3.831521302765354e-7
3686 3687 3.8315213027571657e-7
3687 3687 2.0128410361258507e-6
3688 3687 -3.8406211804984833e-7
3687 3688 -3.840621180496915e-7
3688 3688 2.01180987291035e-6
3689 3688 -3.7624239736059474e-7
3688 3689 -3.7624239736105203e-7
3689 3689 1.993234181672506e-6
3690 3689 -4.1398070678235317e-7
3689 3690 -4.139807067813117e-7
3690 3690 1.9898148338321755e-6
3691 3690 -3.8350539294845173e-7
3690 3691 -3.835053929472222e-7
3691 3691 1.9790238061390762e-6
3692 3691 -3.7131086480371e-7
3691 3692 -3.7131086480409173e-7
3692 3692 2.018232814568781e-6
3693 3692 -3.7833552667950074e-7
3692 3693 -3.7833552667942096e-7
3693 3693 1.9864780309570677e-6
3694 3693 3.750360135201336e-7
3693 3694 3.7503601351973597e-7
3694 3694 1.966882089595036e-6
3695 3694 3.824461431680077e-7
3694 3695 3.8244614316854243e-7
3695 3695 2.006130463905128e-6
3696 3695 3.8246192820326674e-7
3695 3696 3.8246192820419667e-7
3696 3696 2.0049643436112607e-6
3697 3696 4.0850761297541743e-7
3696 3697 4.085076129760879e-7
3697 3697 2.021225854377421e-6
3698 3697 3.886876977249536e-7
3697 3698 3.886876977247192e-7
3698 3698 2.0244563595352266e-6
3699 3698 -3.944327291097341e-7
3698 3699 -3.9443272910952524e-7
3699 3699 1.988921487457365e-6
3700 3699 -3.8797178121353404e-7
3699 3700 -3.8797178121366004e-7
3700 3700 1.995743638355323e-6
3701 3700 -3.803161670404085e-7
3700 3701 -3.803161670406532e-7
3701 3701 2.0006857631691778e-6
3702 3701 3.828048152556143e-7
3701 3702 3.828048152554365e-7
3702 3702 2.0084515105240436e-6
3703 3702 -3.6839977179800944e-7
3702 3703 -3.6839977179795825e-7
3703 3703 2.0067474206144117e-6
3704 3703 3.7784702289365534e-7
3703 3704 3.7784702289370553e-7
3704 3704 1.9893253878667667e-6
3705 3704 3.775014391049788e-7
3704 3705 3.775014391053494e-7
3705 3705 1.994970480866154e-6
3706 3705 3.810558707876303e-7
3705 3706 3.8105587078895984e-7
3706 3706 1.9730693611044366e-6
3707 3706 -3.920424749161987e-7
3706 3707 -3.920424749166321e-7
3707 3707 2.0017101392491944e-6
3708 3707 3.7616350655393034e-7
3707 3708 3.761635065540752e-7
3708 3708 2.0083751602948613e-6
3709 3708 3.8046882141544867e-7
3708 3709 3.8046882141600803e-7
3709 3709 1.9965200389026876e-6
3710 3709 3.672453682494715e-7
3709 3710 3.6724536824982606e-7
3710 3710 2.003442148228454e-6
3711 3710 -3.7172639254689804e-7
3710 3711 -3.717263925469299e-7
3711 3711 2.0262601637250615e-6
3712 3711 -3.6529762647753567e-7
3711 3712 -3.652976264769546e-7
3712 3712 1.975215868520331e-6
3713 3712 3.7012639687751094e-7
3712 3713 3.701263968768344e-7
3713 3713 1.983156353325972e-6
3714 3713 -3.8595113929719574e-7
3713 3714 -3.859511392968727e-7
3714 3714 1.9903444307485716e-6
3715 3714 -3.6743075091884294e-7
3714 3715 -3.6743075091956906e-7
3715 3715 2.003081132256205e-6
3716 3715 -3.6992344100434666e-7
3715 3716 -3.6992344100352584e-7
3716 3716 2.0118859350597972e-6
3717 3716 -3.6081152400784324e-7
3716 3717 -3.6081152400770565e-7
3717 3717 1.9802672559570424e-6
3718 3717 3.586991679876463e-7
3717 3718 3.5869916798686803e-7
3718 3718 2.022107302210204e-6
3719 3718 -3.669900935794828e-7
3718 3719 -3.6699009357876035e-7
3719 3719 1.9913815654090594e-6
3720 3719 3.573791423661497e-7
3719 3720 3.573791423657779e-7
3720 3720 2.0077615382465705e-6
3721 3720 3.5480148383243683e-7
3720 3721 3.548014838322252e-7
3721 3721 2.0235034841106764e-6
3722 3721 3.550128248187581e-7
3721 3722 3.550128248184972e-7
3722 3722 2.0333758245339033e-6
3723 3722 -3.5382161784788423e-7
3722 3723 -3.538216178476353e-7
3723 3723 1.995130192641679e-6
3724 3723 -3.820510687015216e-7
3723 3724 -3.820510687015353e-7
3724 3724 1.9889536257404793e-6
3725 3724 3.5944243209352115e-7
3724 3725 3.594424320939445e-7
3725 3725 2.005650867067612e-6
3726 3725 -3.49366575260341e-7
3725 3726 -3.4936657526130524e-7
3726 3726 2.005689459891306e-6
3727 3726 3.8343492368045937e-7
3726 3727 3.834349236799748e-7
3727 3727 2.0034546288060032e-6
3728 3727 -3.802268426521362e-7
3727 3728 -3.8022684265223463e-7
3728 3728 1.974752292058237e-6
3729 3728 3.6637301802714196e-7
3728 3729 3.6637301802729294e-7
3729 3729 2.0291630712109798e-6
3730 3729 -3.7045528586285054e-7
3729 3730 -3.7045528586276636e-7
3730 3730 2.0017085015194557e-6
3731 3730 -3.6421997556492373e-7
3730 3731 -3.6421997556525746e-7
3731 3731 1.9961576087861287e-6
3732 3731 -3.616488372053112e-7
3731 3732 -3.6164883720592724e-7
3732 3732 1.982919953088121e-6
3733 3732 3.696452916420559e-7
3732 3733 3.6964529164150686e-7
3733 3733 2.024138552327072e-6
3734 3733 3.5912335759954877e-7
3733 3734 3.591233576002771e-7
3734 3734 2.0342329377538833e-6
3735 3734 3.601592936016338e-7
3734 3735 3.601592936010407e-7
3735 3735 2.0106495022581384e-6
3736 3735 -3.6327826599880935e-7
3735 3736 -3.6327826599979403e-7
3736 3736 1.9821206967072553e-6
3737 3736 -3.6276835993635383e-7
3736 3737 -3.627683599367247e-7
3737 3737 2.0431317067463262e-6
3738 3737 3.5448898237363656e-7
3737 3738 3.54488982373658e-7
3738 3738 1.977028211127844e-6
3739 3738 -3.4795608308979627e-7
3738 3739 -3.4795608309015425e-7
3739 3739 1.9976897570828656e-6
3740 3739 3.622631276334536e-7
3739 3740 3.622631276334514e-7
3740 3740 1.973674433734773e-6
3741 3740 3.6176615569238513e-7
3740 3741 3.6176615569213976e-7
3741 3741 2.0291764193112034e-6
3742 3741 3.535580004292334e-7
3741 3742 3.535580004290154e-7
3742 3742 1.9841354607595663e-6
3743 3742 3.5519238515636034e-7
3742 3743 3.55192385157283e-7
3743 3743 2.0161133602358384e-6
3744 3743 -3.538639337822143e-7
3743 3744 -3.5386393378244636e-7
3744 3744 2.010340101194121e-6
3745 3744 -3.553573968594504e-7
3744 3745 -3.553573968597894e-7
3745 3745 2.025565232579812e-6
3746 3745 -3.7021003855393716e-7
3745 3746 -3.7021003855300463e-7
3746 3746 1.9583374932508762e-6
3747 3746 3.5495831154113103e-7
3746 3747 3.5495831154222736e-7
3747 3747 1.984444202085819e-6
3748 3747 -3.4471180298876776e-7
3747 3748 -3.4471180298886654e-7
3748 3748 2.0290541743279874e-6
3749 3748 3.3407553655779247e-7
3748 3749 3.34075536558804e-7
3749 3749 2.0076951384879725e-6
3750 3749 -3.484395611060602e-7
3749 3750 -3.48439561106391e-7
3750 3750 1.977819621923505e-6
3751 3750 3.503838480447209e-7
3750 3751 3.503838480442828e-7
3751 3751 2.0145012790108264e-6
3752 3751 3.406689148265502e-7
3751 3752 3.406689148253904e-7
3752 3752 1.971270625254777e-6
3753 3752 3.488895739576259e-7
3752 3753 3.4888957395811627e-7
3753 3753 1.998696243839226e-6
3754 3753 -3.4491446180631143e-7
3753 3754 -3.449144618065844e-7
3754 3754 1.982536803739063e-6
3755 3754 3.232060826241067e-7
3754 3755 3.232060826246185e-7
3755 3755 2.027147111772887e-6
3756 3755 -3.3486067782562534e-7
3755 3756 -3.348606778251372e-7
3756 3756 2.018041761118861e-6
3757 3756 -3.3340287002410205e-7
3756 3757 -3.3340287002389844e-7
3757 3757 2.0059682763548717e-6
3758 3757 -3.4851148077713056e-7
3757 3758 -3.4851148077705845e-7
3758 3758 2.008982383734256e-6
3759 3758 3.538816567086155e-7
3758 3759 3.538816567086269e-7
3759 3759 1.9780513242656467e-6
3760 3759 -3.5029630680181356e-7
3759 3760 -3.5029630680229203e-7
3760 3760 1.96345538655963e-6
3761 3760 3.5576220442753777e-7
3760 3761 3.5576220442750383e-7
3761 3761 2.0078839498541895e-6
3762 3761 -3.2266435161731747e-7
3761 3762 -3.226643516185578e-7
3762 3762 2.03988133617603e-6
3763 3762 3.402115242918143e-7
3762 3763 3.402115242930974e-7
3763 3763 2.002179960236652e-6
3764 3763 -3.320404144679242e-7
3763 3764 -3.320404144675841e-7
3764 3764 1.969220170751191e-6
3765 3764 3.5600633219518276e-7
3764 3765 3.560063321950253e-7
3765 3765 1.983609662080147e-6
3766 3765 3.385785995267881e-7
3765 3766 3.3857859952641605e-7
3766 3766 1.9913891426682056e-6
3767 3766 3.409813326694848e-7
3766 3767 3.409813326694949e-7
3767 3767 2.0404205061477383e-6
3768 3767 3.338331053713733e-7
3767 3768 3.338331053711856e-7
3768 3768 1.9851279747982204e-6
3769 3768 3.365689749413908e-7
3768 3769 3.3656897494092886e-7
3769 3769 2.006465773074956e-6
3770 3769 -3.382742857151782e-7
3769 3770 -3.382742857155032e-7
3770 3770 1.9966714611018307e-6
3771 3770 -3.2219248308422706e-7
3770 3771 -3.221924830843205e-7
3771 3771 2.006910729427427e-6
3772 3771 -3.3043673091978136e-7
3771 3772 -3.304367309194312e-7
3772 3772 1.9626656684928273e-6
3773 3772 3.4789763538541856e-7
3772 3773 3.4789763538521103e-7
3773 3773 1.997110955229251e-6
3774 3773 -3.2576393855338734e-7
3773 3774 -3.257639385538012e-7
3774 3774 2.0195838691450145e-6
3775 3774 -3.1023562455295334e-7
3774 3775 -3.102356245525597e-7
3775 3775 2.0131407502342817e-6
3776 3775 -3.3268878530014965e-7
3775 3776 -3.32688785299946e-7
3776 3776 1.9932192615309348e-6
3777 3776 -3.2365473548851496e-7
3776 3777 -3.236547354871099e-7
3777 3777 2.020890158419538e-6
3778 3777 3.352212850206777e-7
3777 3778 3.352212850203539e-7
3778 3778 1.9845917093869606e-6
3779 3778 -3.2608395397175364e-7
3778 3779 -3.260839539723225e-7
3779 3779 2.0100580833476157e-6
3780 3779 -3.3882612420857773e-7
3779 3780 -3.388261242080645e-7
3780 3780 2.02189961054154e-6
3781 3780 -3.1606908535205433e-7
3780 3781 -3.160690853524198e-7
3781 3781 2.0006789891458185e-6
3782 3781 3.295237155308918e-7
3781 3782 3.295237155316694e-7
3782 3782 2.016521599748302e-6
3783 3782 3.1370006690868047e-7
3782 3783 3.1370006690910356e-7
3783 3783 2.0188885162554106e-6
3784 3783 -3.335800443770521e-7
3783 3784 -3.335800443770075e-7
3784 3784 2.0098192749299457e-6
3785 3784 -3.07368399687266e-7
3784 3785 -3.0736839968736506e-7
3785 3785 1.982079297857088e-6
3786 3785 3.4093276942891076e-7
3785 3786 3.4093276942845103e-7
3786 3786 2.0106147991424966e-6
3787 3786 -3.2946840862536675e-7
3786 3787 -3.2946840862505843e-7
3787 3787 1.9687409912345765e-6
3788 3787 -3.2314981649225484e-7
3787 3788 -3.2314981649197675e-7
3788 3788 2.013165617328572e-6
3789 3788 3.184001242541551e-7
3788 3789 3.184001242541112e-7
3789 3789 2.0062828639611185e-6
3790 3789 3.1218866686208967e-7
3789 3790 3.121886668621526e-7
3790 3790 2.0446892165921903e-6
3791 3790 3.1686576913768024e-7
3790 3791 3.168657691373735e-7
3791 3791 1.983059815024008e-6
3792 3791 3.209937583877161e-7
3791 3792 3.2099375838748157e-7
3792 3792 2.0152400991467456e-6
3793 3792 -3.1893191389614266e-7
3792 3793 -3.189319138970571e-7
3793 3793 2.0037892917919305e-6
3794 3793 3.281583729843107e-7
3793 3794 3.281583729841997e-7
3794 3794 1.985780112640071e-6
3795 3794 -3.1262362925501524e-7
3794 3795 -3.126236292540314e-7
3795 3795 1.9829405934948547e-6
3796 3795 -3.0972819616715383e-7
3795 3796 -3.097281961680186e-7
3796 3796 2.00450205646106e-6
3797 3796 3.1509870994198644e-7
3796 3797 3.1509870994267635e-7
3797 3797 1.997689371142626e-6
3798 3797 -3.2463834101624624e-7
3797 3798 -3.246383410166679e-7
3798 3798 2.0048127207570148e-6
3799 3798 -3.064832001105172e-7
3798 3799 -3.0648320011073515e-7
3799 3799 2.0061322706003025e-6
3800 3799 3.059676279666435e-7
3799 3800 3.0596762796617353e-7
3800 3800 2.0134184441880863e-6
3801 3800 -2.9896566102264973e-7
3800 3801 -2.989656610215178e-7
3801 3801 1.9937261097699447e-6
3802 3801 -3.1405210234824466e-7
3801 3802 -3.1405210234735713e-7
3802 3802 2.010976759183503e-6
3803 3802 3.356007815170705e-7
3802 3803 3.356007815174365e-7
3803 3803 1.9918202685715384e-6
3804 3803 2.9956535376137696e-7
3803 3804 2.995653537612651e-7
3804 3804 2.041234282844062e-6
3805 3804 -2.934420551053889e-7
3804 3805 -2.9344205510557287e-7
3805 3805 1.9660979237233592e-6
3806 3805 3.1553842696873966e-7
3805 3806 3.155384269692163e-7
3806 3806 1.9922077460238437e-6
3807 3806 3.1754514866208945e-7
3806 3807 3.1754514866139187e-7
3807 3807 1.9865672425496047e-6
3808 3807 3.009829918573552e-7
3807 3808 3.0098299185632636e-7
3808 3808 2.0020367739285175e-6
3809 3808 3.029637892520266e-7
3808 3809 3.0296378925143383e-7
3809 3809 2.038148091696908e-6
3810 3809 -3.154905111641844e-7
3809 3810 -3.1549051116452723e-7
3810 3810 1.996073320193138e-6
3811 3810 3.059373096438185e-7
3810 3811 3.0593730964363813e-7
3811 3811 2.0133642158761124e-6
3812 3811 2.9355923115555353e-7
3811 3812 2.935592311561314e-7
3812 3812 2.0076160721786248e-6
3813 3812 -3.007757086064691e-7
3812 3813 -3.00775708606518e-7
3813 3813 1.968117995345157e-6
3814 3813 2.9583212758470886e-7
3813 3814 2.9583212758417275e-7
3814 3814 2.002652036343228e-6
3815 3814 3.1454274468033947e-7
3814 3815 3.1454274468042417e-7
3815 3815 2.0139147650587646e-6
3816 3815 2.8839535460251936e-7
3815 3816 2.8839535460244355e-7
3816 3816 2.0048987714382624e-6
3817 3816 -3.0394514677198296e-7
3816 3817 -3.039451467713452e-7
3817 3817 1.986846111240295e-6
3818 3817 3.030135653165172e-7
3817 3818 3.0301356531641326e-7
3818 3818 1.969903708572884e-6
3819 3818 -2.9164068211535204e-7
3818 3819 -2.916406821163064e-7
3819 3819 1.9893489848475865e-6
3820 3819 -2.9237426621217067e-7
3819 3820 -2.92374266212425e-7
3820 3820 1.9776335893731944e-6
3821 3820 2.902353088171797e-7
3820 3821 2.902353088174497e-7
3821 3821 1.9856135418424132e-6
3822 3821 -2.89737758456989e-7
3821 3822 -2.8973775845796765e-7
3822 3822 1.99722533087594e-6
3823 3822 2.997720509022826e-7
3822 3823 2.9977205090234824e-7
3823 3823 1.9856936341217257e-6
3824 3823 2.7142377053594273e-7
3823 3824 2.714237705355595e-7
3824 3824 1.9959668694912567e-6
3825 3824 2.9753661250635047e-7
3824 3825 2.975366125061566e-7
3825 3825 1.9700736635693936e-6
3826 3825 -2.9495753565887934e-7
3825 3826 -2.949575356598366e-7
3826 3826 1.9929177378215545e-6
3827 3826 -2.7992718576233346e-7
3826 3827 -2.799271857627631e-7
3827 3827 2.0179633482708943e-6
3828 3827 -2.9323936803458725e-7
3827 3828 -2.932393680347731e-7
3828 3828 1.9840332100771206e-6
3829 3828 -2.963383803615821e-7
3828 3829 -2.9633838036156577e-7
3829 3829 1.9882912460835394e-6
3830 3829 -2.9541399838916634e-7
3829 3830 -2.954139983896427e-7
3830 3830 1.9858401063541446e-6
3831 3830 -3.0547961237108754e-7
3830 3831 -3.054796123715341e-7
3831 3831 1.994365853448536e-6
3832 3831 2.9627174115090036e-7
3831 3832 2.962717411508624e-7
3832 3832 1.9944416060018913e-6
3833 3832 2.9744006495335905e-7
3832 3833 2.974400649534288e-7
3833 3833 2.0149015999787986e-6
3834 3833 -2.8277486339257393e-7
3833 3834 -2.8277486339181737e-7
3834 3834 2.0221278017328055e-6
3835 3834 2.9129209803577216e-7
3834 3835 2.9129209803658054e-7
3835 3835 2.0059652564849e-6
3836 3835 -2.859219322058493e-7
3835 3836 -2.859219322056035e-7
3836 3836 2.0123782208948676e-6
3837 3836 -2.844777475752333e-7
3836 3837 -2.844777475753948e-7
3837 3837 2.0254212532683706e-6
3838 3837 2.9343830580130344e-7
3837 3838 2.934383058010928e-7
3838 3838 2.022861906970372e-6
3839 3838 -2.8289169345094643e-7
3838 3839 -2.828916934506799e-7
3839 3839 1.999816613397464e-6
3840 3839 -2.7657053108813835e-7
3839 3840 -2.7657053108766385e-7
3840 3840 1.983435303564764e-6
3841 3840 -2.7432806803541813e-7
3840 3841 -2.743280680357997e-7
3841 3841 2.0039850192935166e-6
3842 3841 2.9820987949980365e-7
3841 3842 2.982098795000533e-7
3842 3842 2.019166093431444e-6
3843 3842 -2.702816551642383e-7
3842 3843 -2.7028165516480003e-7
3843 3843 2.00252607840951e-6
3844 3843 -2.7783999320583163e-7
3843 3844 -2.7783999320665537e-7
3844 3844 1.9770483448916342e-6
3845 3844 2.97165298713517e-7
3844 3845 2.971652987127739e-7
3845 3845 2.0140564947476445e-6
3846 3845 2.6449037455783524e-7
3845 3846 2.6449037455819523e-7
3846 3846 2.014186903508287e-6
3847 3846 2.6637374740055686e-7
3846 3847 2.663737474007903e-7
3847 3847 2.0433586490458575e-6
3848 3847 2.7479385649248396e-7
3847 3848 2.747938564921408e-7
3848 3848 1.960690018791665e-6
3849 3848 2.6426068629224e-7
3848 3849 2.6426068629225227e-7
3849 3849 1.9933445494077445e-6
3850 3849 2.918173941376865e-7
3849 3850 2.918173941374902e-7
3850 3850 1.9802563084699015e-6
3851 3850 -2.682708205860092e-7
3850 3851 -2.6827082058597693e-7
3851 3851 1.9934959714843135e-6
3852 3851 -2.5855599188492404e-7
3851 3852 -2.5855599188530557e-7
3852 3852 2.023721114631989e-6
3853 3852 2.6436133230203573e-7
3852 3853 2.643613323017734e-7
3853 3853 1.9678507570242017e-6
3854 3853 -2.6804097297655497e-7
3853 3854 -2.6804097297717415e-7
3854 3854 2.019935924546944e-6
3855 3854 2.698842112265488e-7
3854 3855 2.698842112267065e-7
3855 3855 2.014114818223908e-6
3856 3855 -2.5311971818528413e-7
3855 3856 -2.531197181849881e-7
3856 3856 2.0072223407648845e-6
3857 3856 2.681203008812363e-7
3856 3857 2.681203008813119e-7
3857 3857 1.987646633114437e-6
3858 3857 -2.75050276606327e-7
3857 3858 -2.7505027660610963e-7
3858 3858 2.0128564789381785e-6
3859 3858 -2.6869989059015347e-7
3858 3859 -2.68699890590145e-7
3859 3859 2.0025989769887765e-6
3860 3859 -2.596652882266279e-7
3859 3860 -2.5966528822657295e-7
3860 3860 2.007343411620524e-6
3861 3860 2.553767995537013e-7
3860 3861 2.5537679955358737e-7
3861 3861 2.020056407040934e-6
3862 3861 2.566381091704343e-7
3861 3862 2.566381091697173e-7
3862 3862 1.9933001286300134e-6
3863 3862 2.562040961427506e-7
3862 3863 2.562040961423413e-7
3863 3863 2.004596787128464e-6
3864 3863 -2.568732906229295e-7
3863 3864 -2.568732906224833e-7
3864 3864 1.991355158866235e-6
3865 3864 2.615263509739864e-7
3864 3865 2.6152635097457174e-7
3865 3865 2.0079609486466994e-6
3866 3865 2.5252328204645153e-7
3865 3866 2.5252328204748846e-7
3866 3866 2.002386230773602e-6
3867 3866 2.425181681670404e-7
3866 3867 2.42518168166996e-7
3867 3867 2.03157606646452e-6
3868 3867 -2.4790159158106486e-7
3867 3868 -2.479015915815647e-7
3868 3868 2.000540420513203e-6
3869 3868 2.415791408261792e-7
3868 3869 2.415791408259296e-7
3869 3869 2.0224044899061304e-6
3870 3869 2.446805031307145e-7
3869 3870 2.4468050313112283e-7
3870 3870 1.9909944082973307e-6
3871 3870 2.4008417208034034e-7
3870 3871 2.400841720794082e-7
3871 3871 2.0292922672518595e-6
3872 3871 -2.639318632606408e-7
3871 3872 -2.6393186326094427e-7
3872 3872 2.0084265646685478e-6
3873 3872 2.356080420690308e-7
3872 3873 2.356080420691188e-7
3873 3873 2.0031837182149657e-6
3874 3873 2.4134852068467055e-7
3873 3874 2.4134852068412353e-7
3874 3874 2.0174680944743484e-6
3875 3874 2.484015700513576e-7
3874 3875 2.484015700512214e-7
3875 3875 2.0326922885288226e-6
3876 3875 2.3573335916687204e-7
3875 3876 2.3573335916649819e-7
3876 3876 2.002078205306183e-6
3877 3876 -2.456360094427515e-7
3876 3877 -2.456360094421595e-7
3877 3877 1.9947446630766815e-6
3878 3877 -2.502789099605587e-7
3877 3878 -2.5027890995974254e-7
3878 3878 1.9721423856567725e-6
3879 3878 2.593802222929926e-7
3878 3879 2.5938022229319066e-7
3879 3879 1.9693294880924568e-6
3880 3879 -2.4951545595414186e-7
3879 3880 -2.495154559534828e-7
3880 3880 1.9665938717633857e-6
3881 3880 -2.41205872354926e-7
3880 3881 -2.4120587235424663e-7
3881 3881 1.996815854441783e-6
3882 3881 -2.5467471194775526e-7
3881 3882 -2.546747119490028e-7
3882 3882 2.0014888284212942e-6
3883 3882 -2.580737556904014e-7
3882 3883 -2.580737556902268e-7
3883 3883 1.9764929709118477e-6
3884 3883 -2.5270728205164247e-7
3883 3884 -2.52707282051119e-7
3884 3884 2.0164592878033793e-6
3885 3884 2.3205645408969494e-7
3884 3885 2.3205645409011335e-7
3885 3885 2.0193814361471755e-6
3886 3885 2.3815047464199745e-7
3885 3886 2.3815047464155363e-7
3886 3886 1.9420785260242893e-6
3887 3886 -2.2785891441578167e-7
3886 3887 -2.2785891441644108e-7
3887 3887 1.9955645113818388e-6
3888 3887 -2.4565314909025853e-7
3887 3888 -2.4565314909071063e-7
3888 3888 1.9831993939895667e-6
3889 3888 2.3913938079414165e-7
3888 3889 2.3913938079438745e-7
3889 3889 2.022932252952314e-6
3890 3889 -2.2547647759446788e-7
3889 3890 -2.2547647759462016e-7
3890 3890 1.9803736735059135e-6
3891 3890 -2.5203477651890273e-7
3890 3891 -2.520347765195715e-7
3891 3891 1.987469703446575e-6
3892 3891 -2.3793511402013536e-7
3891 3892 -2.379351140198444e-7
3892 3892 1.9894901703134114e-6
3893 3892 -2.347925956141465e-7
3892 3893 -2.3479259561371597e-7
3893 3893 1.9749671954179767e-6
3894 3893 2.283892947996841e-7
3893 3894 2.283892947999442e-7
3894 3894 1.990751636868118e-6
3895 3894 -2.1904495301399492e-7
3894 3895 -2.1904495301410726e-7
3895 3895 2.013193849033841e-6
3896 3895 2.223534268963369e-7
3895 3896 2.223534268968505e-7
3896 3896 1.9924488320180684e-6
3897 3896 -2.281258482874929e-7
3896 3897 -2.281258482879384e-7
3897 3897 2.0159987627893756e-6
3898 3897 -2.2784559933846922e-7
3897 3898 -2.2784559933850082e-7
3898 3898 2.025911249148151e-6
3899 3898 2.1918662137411594e-7
3898 3899 2.1918662137346555e-7
3899 3899 2.0011784790819623e-6
3900 3899 -2.21695912543088e-7
3899 3900 -2.2169591254278107e-7
3900 3900 1.9869800516449194e-6
3901 3900 -2.2031479128421355e-7
3900 3901 -2.2031479128398218e-7
3901 3901 2.0023363642754713e-6
3902 3901 -2.1913608910075085e-7
3901 3902 -2.1913608910110804e-7
3902 3902 1.984340409813672e-6
3903 3902 2.0718696487600694e-7
3902 3903 2.0718696487598042e-7
3903 3903 1.997131145831189e-6
3904 3903 1.9239323609456324e-7
3903 3904 1.9239323609485748e-7
3904 3904 1.997383978082709e-6
3905 3904 -2.2005830945708273e-7
3904 3905 -2.2005830945712617e-7
3905 3905 1.9801867616509747e-6
3906 3905 -2.2047571392081996e-7
3905 3906 -2.2047571392037304e-7
3906 3906 1.98185655366175e-6
3907 3906 -2.2183776643108154e-7
3906 3907 -2.2183776643107918e-7
3907 3907 1.9791035328903307e-6
3908 3907 -2.159844687533171e-7
3907 3908 -2.159844687531297e-7
3908 3908 1.9608271428649925e-6
3909 3908 -2.1326072904099122e-7
3908 3909 -2.1326072904056768e-7
3909 3909 2.028462103037423e-6
3910 3909 -1.9785248108475564e-7
3909 3910 -1.9785248108463203e-7
3910 3910 1.967888984065387e-6
3911 3910 -2.0204964884886225e-7
3910 3911 -2.0204964884883573e-7
3911 3911 2.022550824080204e-6
3912 3911 -2.09700771550458e-7
3911 3912 -2.0970077155044023e-7
3912 3912 2.0042815281250254e-6
3913 3912 -2.1343020239416661e-7
3912 3913 -2.1343020239429237e-7
3913 3913 2.0389545069979478e-6
3914 3913 2.1744329435528117e-7
3913 3914 2.1744329435522564e-7
3914 3914 2.007218481801301e-6
3915 3914 2.0602105464761087e-7
3914 3915 2.0602105464737267e-7
3915 3915 2.029760905244133e-6
3916 3915 2.1728673584604342e-7
3915 3916 2.172867358461423e-7
3916 3916 1.9707592315385417e-6
3917 3916 -2.0881376968934404e-7
3916 3917 -2.0881376968949656e-7
3917 3917 2.0283493363181104e-6
3918 3917 -1.9732002781918548e-7
3917 3918 -1.9732002781929523e-7
3918 3918 2.003812134571795e-6
3919 3918 -2.1608819465529347e-7
3918 3919 -2.1608819465531362e-7
3919 3919 2.0267904749147886e-6
3920 3919 -2.1123205321958625e-7
3919 3920 -2.1123205321912195e-7
3920 3920 1.9976264488147495e-6
3921 3920 -1.956333894706095e-7
3920 3921 -1.9563338947127428e-7
3921 3921 1.977635251441131e-6
3922 3921 2.0086572509059378e-7
3921 3922 2.008657250906011e-7
3922 3922 2.013478650259095e-6
3923 3922 1.952272230894016e-7
3922 3923 1.9522722308947687e-7
3923 3923 1.9891847886422672e-6
3924 3923 -2.122692575191272e-7
3923 3924 -2.1226925751843886e-7
3924 3924 2.015301053242613e-6
3925 3924 1.9492754887574216e-7
3924 3925 1.949275488760785e-7
3925 3925 1.970325356704264e-6
3926 3925 -2.0024621283469264e-7
3925 3926 -2.0024621283428746e-7
3926 3926 1.99488837878231e-6
3927 3926 -2.017837460808663e-7
3926 3927 -2.0178374608068874e-7
3927 3927 2.021120462731776e-6
3928 3927 1.746833307908259e-7
3927 3928 1.7468333079142943e-7
3928 3928 2.0032909123410866e-6
3929 3928 -1.8857044051993594e-7
3928 3929 -1.8857044052070652e-7
3929 3929 1.9975393850372953e-6
3930 3929 -1.6293280674627748e-7
3929 3930 -1.6293280674645372e-7
3930 3930 2.023589109811918e-6
3931 3930 -1.7336561545317162e-7
3930 3931 -1.7336561545259397e-7
3931 3931 2.0045198029977464e-6
3932 3931 1.7892129183701968e-7
3931 3932 1.7892129183694896e-7
3932 3932 2.0330021351641377e-6
3933 3932 -1.9805417653555089e-7
3932 3933 -1.980541765360076e-7
3933 3933 1.984507327590927e-6
3934 3933 -1.7193541319082506e-7
3933 3934 -1.7193541319025398e-7
3934 3934 2.0125079615236004e-6
3935 3934 -1.7748027795458043e-7
3934 3935 -1.7748027795505093e-7
3935 3935 1.9322925927474133e-6
3936 3935 -1.945780470525441e-7
3935 3936 -1.9457804705298466e-7
3936 3936 2.026607970599024e-6
3937 3936 -1.8168312954233774e-7
3936 3937 -1.816831295430065e-7
3937 3937 1.9997941845509293e-6
3938 3937 -1.738782693721626e-7
3937 3938 -1.738782693733218e-7
3938 3938 1.9878021134684674e-6
3939 3938 -1.7269774499369477e-7
3938 3939 -1.726977449930855e-7
3939 3939 1.9845868372893185e-6
3940 3939 1.6648287887741367e-7
3939 3940 1.6648287887718126e-7
3940 3940 1.9931973435652937e-6
3941 3940 1.6501808148552668e-7
3940 3941 1.650180814855733e-7
3941 3941 2.034961540580251e-6
3942 3941 1.866000020566962e-7
3941 3942 1.8660000205697112e-7
3942 3942 2.0040446334532603e-6
3943 3942 1.746105744151061e-7
3942 3943 1.7461057441555412e-7
3943 3943 1.9571964643862567e-6
3944 3943 1.5985305251262077e-7
3943 3944 1.5985305251180634e-7
3944 3944 2.0163792259422943e-6
3945 3944 1.7304122111461984e-7
3944 3945 1.7304122111445583e-7
3945 3945 1.991486088707341e-6
3946 3945 -1.6744949593201465e-7
3945 3946 -1.6744949593178897e-7
3946 3946 1.990922242218266e-6
3947 3946 1.6931354921430792e-7
3946 3947 1.6931354921427523e-7
3947 3947 2.0045536357359224e-6
3948 3947 1.724907869932052e-7
3947 3948 1.724907869936425e-7
3948 3948 2.0092483987070614e-6
3949 3948 -1.5191455774599587e-7
3948 3949 -1.5191455774600413e-7
3949 3949 2.01050331371116e-6
3950 3949 1.6295295202364323e-7
3949 3950 1.6295295202450151e-7
3950 3950 1.9751311783335097e-6
3951 3950 -1.3617377366183293e-7
3950 3951 -1.361737736616756e-7
3951 3951 1.9560460133692466e-6
3952 3951 -1.5406439463727656e-7
3951 3952 -1.5406439463783169e-7
3952 3952 1.9908210303594316e-6
3953 3952 -1.4336027616804176e-7
3952 3953 -1.4336027616754217e-7
3953 3953 2.0188232371955604e-6
3954 3953 -1.4764559430607684e-7
3953 3954 -1.4764559430693566e-7
3954 3954 1.9918249260240864e-6
3955 3954 1.428097989710303e-7
3954 3955 1.4280979897133014e-7
3955 3955 1.9781964131522224e-6
3956 3955 -1.5413699266140414e-7
3955 3956 -1.5413699266142976e-7
3956 3956 1.976152341033305e-6
3957 3956 -1.4489188502282312e-7
3956 3957 -1.4489188502278458e-7
3957 3957 2.0001976679153246e-6
3958 3957 1.545938357153864e-7
3957 3958 1.5459383571592882e-7
3958 3958 2.0115312700402115e-6
3959 3958 1.4795157369190134e-7
3958 3959 1.479515736921325e-7
3959 3959 2.0134386318423862e-6
3960 3959 -1.487081730176137e-7
3959 3960 -1.4870817301819332e-7
3960 3960 2.0063002828068685e-6
3961 3960 -1.3158925981749232e-7
3960 3961 -1.3158925981827696e-7
3961 3961 1.969921191334189e-6
3962 3961 -1.3832806275233695e-7
3961 3962 -1.3832806275336964e-7
3962 3962 2.0141685278691574e-6
3963 3962 -1.3709426401360399e-7
3962 3963 -1.3709426401335268e-7
3963 3963 2.073297382408831e-6
3964 3963 -1.3626666986173056e-7
3963 3964 -1.362666698618892e-7
3964 3964 2.031023657364622e-6
3965 3964 -1.1891757245078548e-7
3964 3965 -1.1891757245050431e-7
3965 3965 1.993956879418588e-6
3966 3965 -1.4171398808650242e-7
3965 3966 -1.417139880869859e-7
3966 3966 1.990103260404149e-6
3967 3966 1.250507990533929e-7
3966 3967 1.250507990525797e-7
3967 3967 1.967755782720163e-6
3968 3967 1.267225601380244e-7
3967 3968 1.2672256013790923e-7
3968 3968 2.012446242712416e-6
3969 3968 1.2115863875047396e-7
3968 3969 1.2115863875001918e-7
3969 3969 2.033862509594739e-6
3970 3969 1.0049328580561623e-7
3969 3970 1.0049328580664634e-7
3970 3970 2.0381374157640855e-6
3971 3970 1.193957381757884e-7
3970 3971 1.193957381759692e-7
3971 3971 2.0071018874566774e-6
3972 3971 1.0995311360856595e-7
3971 3972 1.0995311360834317e-7
3972 3972 1.9798765381327746e-6
3973 3972 1.196859715064064e-7
3972 3973 1.1968597150685068e-7
3973 3973 1.9703981421171934e-6
3974 3973 1.094931620347246e-7
3973 3974 1.094931620349097e-7
3974 3974 1.9919432249380903e-6
3975 3974 1.1312593044470131e-7
3974 3975 1.1312593044467119e-7
3975 3975 1.9554611408719343e-6
3976 3975 8.56690130349029e-8
3975 3976 8.566901303389968e-8
3976 3976 1.9814702402100286e-6
3977 3976 -1.1966997340041123e-7
3976 3977 -1.1966997340052963e-7
3977 3977 2.063703205753544e-6
3978 3977 -1.1026307252387416e-7
3977 3978 -1.102630725242223e-7
3978 3978 2.007809968498019e-6
3979 3978 -1.2478510024731671e-7
3978 3979 -1.247851002481646e-7
3979 3979 1.9814767593964128e-6
3980 3979 9.550173751598247e-8
3979 3980 9.550173751597399e-8
3980 3980 2.000554280394237e-6
3981 3980 9.82458967885595e-8
3980 3981 9.824589678907805e-8
3981 3981 2.047275490136014e-6
3982 3981 -9.160377046522294e-8
3981 3982 -9.160377046418672e-8
3982 3982 1.9630052801435193e-6
3983 3982 1.0547250030504525e-7
3982 3983 1.0547250030513659e-7
3983 3983 1.970832335559492e-6
3984 3983 -1.124427518035824e-7
3983 3984 -1.1244275180383916e-7
3984 3984 2.025183818199312e-6
3985 3984 -8.285836981870725e-8
3984 3985 -8.285836981789214e-8
3985 3985 1.961981996996049e-6
3986 3985 -9.3589856025334e-8
3985 3986 -9.358985602521106e-8
3986 3986 2.0024863962444678e-6
3987 3986 -7.312362964806992e-8
3986 3987 -7.312362964784741e-8
3987 3987 2.0009363957145623e-6
3988 3987 9.389749936787625e-8
3987 3988 9.389749936770155e-8
3988 3988 2.0183695404425214e-6
3989 3988 6.367187904387891e-8
3988 3989 6.367187904415175e-8
3989 3989 2.0135981880074004e-6
3990 3989 7.066293150213868e-8
3989 3990 7.066293150174795e-8
3990 3990 2.0426398480927313e-6
3991 3990 -5.801145572229314e-8
3990 3991 -5.801145572227465e-8
3991 3991 1.9974372852816225e-6
3992 3991 -5.855775001628168e-8
3991 3992 -5.855775001728465e-8
3992 3992 1.9527807309940914e-6
3993 3992 -6.206375950613262e-8
3992 3993 -6.206375950604994e-8
3993 3993 1.9736562677133272e-6
3994 3993 -7.362200787423767e-8
3993 3994 -7.362200787309314e-8
3994 3994 2.0251542341602166e-6
3995 3994 4.0381132954419776e-8
3994 3995 4.038113295452953e-8
3995 3995 2.0089742119855032e-6
3996 3995 5.127950110874565e-8
3995 3996 5.1279501109552214e-8
3996 3996 2.0383899798191846e-6
3997 3996 3.2854588068647553e-8
3996 3997 3.28545880686074e-8
3997 3997 1.951596373677761e-6
3998 3997 5.538055058331343e-8
3997 3998 5.538055058354707e-8
3998 3998 1.9956364871142172e-6
3999 3998 1.5198570587570405e-8
3998 3999 1.519857058785316e-8
3999 3999 2.0136231010484574e-6
4000 3999 -1.6733504178902434e-8
3999 4000 -1.6733504178472142e-8
4000 4000 1.995105724252217e-6
