%%MatrixMarket matrix coordinate real general
4000 4000 11998
1 1 0.49641180694983994
2 1 0.2876908978972859
1 2 0.28769089789728575
2 2 0.5024948400061824
3 2 -0.2566092254286357
2 3 -0.2566092254286355
3 3 0.4911743743591425
4 3 -0.2533387566850915
3 4 -0.25333875668509137
4 4 0.503344140489556
5 4 0.2507261903376211
4 5 0.25072619033762095
5 5 0.5052446564440874
6 5 -0.250793789207725
5 6 -0.250793789207725
6 6 0.4971704709077361
7 6 0.2521855607112099
6 7 0.25218556071121007
7 7 0.497515500635031
8 7 -0.2505252094129472
7 8 -0.25052520941294726
8 8 0.5017957187462632
9 8 -0.2496825939611609
8 9 -0.24968259396116102
9 9 0.5020067158750986
10 9 -0.24999171943039245
9 10 -0.24999171943039253
10 10 0.49836441970804046
11 10 -0.2508465149430986
10 11 -0.25084651494309873
11 11 0.5071919965152694
12 11 0.25143990368422175
11 12 0.2514399036842219
12 12 0.5038685118984021
13 12 -0.2510060073847753
12 13 -0.2510060073847754
13 13 0.4966609472991279
14 13 -0.24907662968413413
13 14 -0.24907662968413405
14 14 0.4961350823301609
15 14 0.24799539195665235
14 15 0.24799539195665224
15 15 0.4959413677836956
16 15 -0.24965801903687293
15 16 -0.24965801903687282
16 16 0.4961730900102696
17 16 -0.25072380184266546
16 17 -0.2507238018426657
17 17 0.5032080712297355
18 17 0.250202410928426
17 18 0.250202410928426
18 18 0.49686396246894615
19 18 -0.2489257730790507
18 19 -0.24892577307905062
19 19 0.4949054621981882
20 19 0.2507839316641442
19 20 0.25078393166414414
20 20 0.5111489018556898
21 20 -0.24794042990418977
20 21 -0.24794042990418985
21 21 0.49058953323430254
22 21 0.24882517004941979
21 22 0.2488251700494197
22 22 0.503375753732202
23 22 0.2524010887695491
22 23 0.25240108876954914
23 23 0.5005886375857742
24 23 0.2492648564764772
23 24 0.24926485647647711
24 24 0.4998258004916437
25 24 -0.2509074685866143
24 25 -0.25090746858661417
25 25 0.49739290596690494
26 25 -0.248553749943167
25 26 -0.24855374994316703
26 26 0.49620185497536856
27 26 -0.25225829624096796
26 27 -0.2522582962409678
27 27 0.5039716730017354
28 27 0.2504044511323672
27 28 0.25040445113236737
28 28 0.5006717598158463
29 28 0.24499243427374018
28 29 0.24499243427374015
29 29 0.5011524270047835
30 29 0.2518088308562181
29 30 0.2518088308562179
30 30 0.5004319303562206
31 30 0.24680305807216382
30 31 0.2468030580721636
31 31 0.49667671800907454
32 31 -0.24932631232217997
31 32 -0.24932631232217997
32 32 0.5004451554101548
33 32 -0.25365268511336697
32 33 -0.2536526851133669
33 33 0.512012708716709
34 33 -0.2522027832930302
33 34 -0.2522027832930302
34 34 0.49765975208086854
35 34 0.25077329422468947
34 35 0.2507732942246896
35 35 0.5041741217012055
36 35 -0.24698117062267494
35 36 -0.24698117062267488
36 36 0.4953998669614116
37 36 -0.25073842784838185
36 37 -0.25073842784838185
37 37 0.4986581672406807
38 37 -0.24836605740309836
37 38 -0.2483660574030985
38 38 0.49836230148154936
39 38 -0.24844019742409829
38 39 -0.24844019742409812
39 39 0.513135622955956
40 39 0.25328417695675914
39 40 0.25328417695675903
40 40 0.49024828847279367
41 40 -0.2466272102652716
40 41 -0.24662721026527154
41 41 0.5066388968838376
42 41 -0.25139611593357064
41 42 -0.2513961159335707
42 42 0.49569164909342556
43 42 -0.2470520262108531
42 43 -0.24705202621085304
43 43 0.49995431511635907
44 43 0.2533412756403161
43 44 0.2533412756403161
44 44 0.49912780344612073
45 44 -0.25123260619011994
44 45 -0.25123260619011994
45 45 0.5009301288411512
46 45 -0.2481983243859987
45 46 -0.2481983243859986
46 46 0.49969385431913294
47 46 0.25449322962092086
46 47 0.25449322962092086
47 47 0.49512845078052825
48 47 -0.24811144567873514
47 48 -0.2481114456787351
48 48 0.4931384140848011
49 48 0.25000562176796076
48 49 0.25000562176796076
49 49 0.5032822414408752
50 49 -0.24928905258377784
49 50 -0.24928905258377781
50 50 0.49759415617026614
51 50 0.24798890637230253
50 51 0.24798890637230253
51 51 0.4945207445385442
52 51 -0.2504164847204275
51 52 -0.2504164847204275
52 52 0.5054267409939097
53 52 -0.2490358116598272
52 53 -0.24903581165982722
53 53 0.5028268069942057
54 53 0.253099886126015
53 54 0.253099886126015
54 54 0.5060708193541199
55 54 -0.24556037544132284
54 55 -0.24556037544132286
55 55 0.4991291983949774
56 55 0.25607499552563573
55 56 0.2560749955256357
56 56 0.503482243942375
57 56 0.2466327959784346
56 57 0.24663279597843446
57 57 0.4987482794138568
58 57 0.24875594853353852
57 58 0.2487559485335387
58 58 0.506586634782989
59 58 -0.2492149323325487
58 59 -0.24921493233254857
59 59 0.4991752504610511
60 59 -0.25078936136600805
59 60 -0.2507893613660079
60 60 0.4958376712364402
61 60 0.24504644242667484
60 61 0.2450464424266748
61 61 0.5044654652175651
62 61 0.25623515182390677
61 62 0.2562351518239068
62 62 0.5000686706009885
63 62 -0.24581725036778543
62 63 -0.24581725036778526
63 63 0.49783133548141995
64 63 0.25143816921699985
63 64 0.2514381692169999
64 64 0.5036688782837444
65 64 -0.25067759180219423
64 65 -0.25067759180219423
65 65 0.4982873339376696
66 65 -0.2508302143185568
65 66 -0.2508302143185567
66 66 0.4998039656270468
67 66 0.25109862461923055
66 67 0.25109862461923044
67 67 0.501054688545647
68 67 0.24972009652549315
67 68 0.24972009652549318
68 68 0.4972599743904432
69 68 -0.25036637709926846
68 69 -0.25036637709926846
69 69 0.5019705642640093
70 69 0.2453622655141233
69 70 0.24536226551412324
70 70 0.4923483288722063
71 70 0.2504002328167108
70 71 0.25040023281671064
71 71 0.5008010880261968
72 71 -0.25077469807154273
71 72 -0.2507746980715428
72 72 0.49835851872541115
73 72 0.24846020275295838
72 73 0.24846020275295844
73 73 0.5002925886972387
74 73 0.25078431207371754
73 74 0.2507843120737176
74 74 0.5031689574662964
75 74 0.25195403325997845
74 75 0.2519540332599786
75 75 0.5045948211538902
76 75 0.24926347662095763
75 76 0.24926347662095735
76 76 0.4894575724780809
77 76 -0.24763647877966666
76 77 -0.24763647877966677
77 77 0.5005105179867537
78 77 0.2530102668935781
77 78 0.25301026689357803
78 78 0.505324447008401
79 78 0.248094174575775
78 79 0.2480941745757749
79 79 0.4959565691284191
80 79 -0.24945665654894755
79 80 -0.24945665654894753
80 80 0.5003029021862351
81 80 0.2500138080573279
80 81 0.2500138080573279
81 81 0.49709426361614917
82 81 -0.24931761204264172
81 82 -0.24931761204264172
82 82 0.5104720511300824
83 82 -0.2511140083417694
82 83 -0.2511140083417694
83 83 0.4941768022117435
84 83 0.24939452310690757
83 84 0.24939452310690743
84 84 0.5009181938741157
85 84 0.24997548208617082
84 85 0.2499754820861707
85 85 0.5025920696806072
86 85 -0.25145094984172744
85 86 -0.2514509498417275
86 86 0.5070184329632232
87 86 0.25015127858961317
86 87 0.25015127858961306
87 87 0.4960221146845753
88 87 0.24878589265244178
87 88 0.24878589265244183
88 88 0.5026628250819916
89 88 0.24964306977820785
88 89 0.24964306977820783
89 89 0.49572732292877275
90 89 -0.2490535163297855
89 90 -0.24905351632978553
90 90 0.5007309853125156
91 90 -0.25309886376813256
90 91 -0.2530988637681325
91 91 0.5009280935823779
92 91 -0.2504512117565293
91 92 -0.2504512117565291
92 92 0.4947088730396512
93 92 -0.24812827276139596
92 93 -0.24812827276139598
93 93 0.5008847026829863
94 93 -0.24993507907239
93 94 -0.24993507907239004
94 94 0.4994736861452743
95 94 0.25208416409149725
94 95 0.25208416409149725
95 95 0.49702913371673163
96 95 -0.2489092890969488
95 96 -0.24890928909694884
96 96 0.4972643765671031
97 96 -0.2471256382405659
96 97 -0.24712563824056594
97 97 0.502537825933749
98 97 -0.25083174052773266
97 98 -0.25083174052773266
98 98 0.5044763837000834
99 98 -0.2538045337475133
98 99 -0.25380453374751344
99 99 0.5050245865730442
100 99 0.25202375307167585
99 100 0.25202375307167596
100 100 0.49711646709802576
101 100 0.2479026120357316
100 101 0.24790261203573175
101 101 0.49495084811342527
102 101 -0.24934847398501683
101 102 -0.24934847398501683
102 102 0.5001984032563508
103 102 0.25125991118250773
102 103 0.2512599111825077
103 103 0.49518487647173776
104 103 -0.248304352850767
103 104 -0.24830435285076705
104 104 0.5049288257102225
105 104 0.2510474874326412
104 105 0.25104748743264127
105 105 0.4955831822948444
106 105 -0.24820922493748548
105 106 -0.2482092249374856
106 106 0.5011315897269368
107 106 0.25106129313912046
106 107 0.2510612931391205
107 107 0.5060347237987882
108 107 0.24891881584355782
107 108 0.24891881584355763
108 108 0.5012279799749029
109 108 0.24785082013722035
108 109 0.24785082013722032
109 109 0.5035655546463966
110 109 -0.2525469539737893
109 110 -0.2525469539737893
110 110 0.5016701055419277
111 110 0.24975378173406965
110 111 0.24975378173406973
111 111 0.4988006959697081
112 111 -0.24631093071629323
111 112 -0.24631093071629329
112 112 0.49217239326835444
113 112 0.2483029903544408
112 113 0.2483029903544406
113 113 0.5013102327330143
114 113 -0.25627759797021005
113 114 -0.25627759797021005
114 114 0.505610573173631
115 114 0.24680345441007936
114 115 0.24680345441007928
115 115 0.5021680153343442
116 115 0.24977274463546736
115 116 0.24977274463546725
116 116 0.4976940495093992
117 116 0.25241109958408664
116 117 0.2524110995840866
117 117 0.5010129079855818
118 117 -0.2494792768633208
117 118 -0.24947927686332072
118 118 0.5004499131297068
119 118 -0.24925878203337312
118 119 -0.24925878203337282
119 119 0.4930711469001705
120 119 -0.2492835135669095
119 120 -0.24928351356690956
120 120 0.5077512267846446
121 120 0.2520043316302128
120 121 0.25200433163021285
121 121 0.49664635938569346
122 121 -0.24842093983550648
121 122 -0.2484209398355063
122 122 0.4971994935398009
123 122 -0.25309363473535584
122 123 -0.25309363473535584
123 123 0.501732270235308
124 123 0.24971591655884504
123 124 0.2497159165588452
124 124 0.49758952006202556
125 124 0.24772215054492702
124 125 0.24772215054492705
125 125 0.49675858160338493
126 125 0.2528010700173098
125 126 0.2528010700173097
126 126 0.5045371888416653
127 126 -0.24895823846557144
126 127 -0.24895823846557133
127 127 0.4951931201579715
128 127 0.25238144318974715
127 128 0.2523814431897471
128 128 0.4957512179054878
129 128 0.2450177107123356
128 129 0.24501771071233552
129 129 0.5087172550913025
130 129 -0.2526983274725106
129 130 -0.25269832747251053
130 130 0.5015588288968428
131 130 0.24923651586034914
130 131 0.24923651586034903
131 131 0.4903148316811822
132 131 -0.2491667248569729
131 132 -0.249166724856973
132 132 0.5070203286785593
133 132 0.24985226767163296
132 133 0.249852267671633
133 133 0.49915490798710593
134 133 -0.24984120474576288
133 134 -0.24984120474576288
134 134 0.49842450136644745
135 134 0.2491332545941795
134 135 0.2491332545941796
135 135 0.5040654589221776
136 135 0.24971559172680396
135 136 0.24971559172680394
136 136 0.5063745714981984
137 136 0.2503062993883957
136 137 0.2503062993883956
137 137 0.4968801635101773
138 137 0.24876985896606021
137 138 0.24876985896606024
138 138 0.4970441317170572
139 138 0.24960534502337278
138 139 0.2496053450233729
139 139 0.5027736813278461
140 139 -0.25540173617103934
139 140 -0.2554017361710393
140 140 0.5023503747967963
141 140 0.24631979020294595
140 141 0.246319790202946
141 141 0.49547533234083285
142 141 0.2502984323546027
141 142 0.2502984323546026
142 142 0.49693435389085344
143 142 -0.24837038085833682
142 143 -0.24837038085833682
143 143 0.4983805990768516
144 143 0.25182169962721596
143 144 0.2518216996272161
144 144 0.5018081803812819
145 144 0.2523970073002596
144 145 0.2523970073002596
145 145 0.4986640445810176
146 145 0.24760895138076086
145 146 0.24760895138076092
146 146 0.5015087803987912
147 146 -0.25214514546581596
146 147 -0.2521451454658159
147 147 0.5020808171421107
148 147 -0.24772702122667
147 148 -0.24772702122667006
148 148 0.4977694931060984
149 148 -0.24805625059557168
148 149 -0.24805625059557165
149 149 0.4966207461889941
150 149 -0.24912491943645482
149 150 -0.24912491943645487
150 150 0.4997108749745673
151 150 -0.2505216204181641
150 151 -0.25052162041816406
151 151 0.49552108730289474
152 151 -0.24953470670587888
151 152 -0.24953470670587888
152 152 0.5002667734874437
153 152 -0.2504764011754964
152 153 -0.2504764011754963
153 153 0.5013894924098575
154 153 -0.24781729673721214
153 154 -0.24781729673721212
154 154 0.49500934535885377
155 154 -0.24909926772669272
154 155 -0.24909926772669252
155 155 0.5016726278699983
156 155 0.25191583959692615
155 156 0.2519158395969261
156 156 0.4980024023197333
157 156 0.2499922489472078
156 157 0.2499922489472077
157 157 0.49693588897505747
158 157 0.24713223886345342
157 158 0.2471322388634533
158 158 0.5044195575475718
159 158 -0.2545479499196809
158 159 -0.25454794991968105
159 159 0.5044304041534228
160 159 0.2529021372087859
159 160 0.25290213720878607
160 160 0.4959326411019191
161 160 0.24628598938205523
160 161 0.24628598938205515
161 161 0.49409494771567763
162 161 0.2521067332143285
161 162 0.25210673321432875
162 162 0.5099937058895011
163 162 -0.24737867974557742
162 163 -0.24737867974557742
163 163 0.4992065340240768
164 163 0.2513643916973369
163 164 0.2513643916973368
164 164 0.49262931282270994
165 164 -0.24947269113750856
164 165 -0.24947269113750853
165 165 0.5045736723618381
166 165 0.24913832092893776
165 166 0.2491383209289377
166 166 0.5037625626587678
167 166 -0.24798406628341416
166 167 -0.24798406628341435
167 167 0.500852908441259
168 167 0.2502402769319714
167 168 0.2502402769319715
168 168 0.4969679579292877
169 168 -0.2481458613055433
168 169 -0.2481458613055434
169 169 0.5042618226623024
170 169 0.2524947082557232
169 170 0.2524947082557233
170 170 0.49551923590554736
171 170 0.2506191744777689
170 171 0.2506191744777687
171 171 0.497625991107702
172 171 0.25131107427303856
171 172 0.25131107427303856
172 172 0.5017543408751036
173 172 -0.251253808267884
172 173 -0.25125380826788407
173 173 0.4879564354440468
174 173 0.24962931892887044
173 174 0.24962931892887047
174 174 0.5054384428292201
175 174 0.24918971437014217
174 175 0.24918971437014206
175 175 0.5022264921004426
176 175 -0.24893564421506245
175 176 -0.24893564421506245
176 176 0.4998535972771781
177 176 -0.2448127368938122
176 177 -0.2448127368938122
177 177 0.4966221139761121
178 177 0.2526715503316385
177 178 0.2526715503316385
178 178 0.4995776390109685
179 178 0.24585810267280125
178 179 0.2458581026728013
179 179 0.4921303655341458
180 179 0.25235949900805915
179 180 0.2523594990080591
180 180 0.5119621381477106
181 180 0.2506090190858613
180 181 0.2506090190858615
181 181 0.5086521346744146
182 181 0.2503716664798696
181 182 0.2503716664798695
182 182 0.4932859208775257
183 182 -0.2454639421599705
182 183 -0.24546394215997047
183 183 0.4980159451794337
184 183 0.25061020664083183
183 184 0.2506102066408318
184 184 0.4995996275413648
185 184 0.24940980264753843
184 185 0.24940980264753818
185 185 0.4931560342409536
186 185 -0.25124432792238877
185 186 -0.2512443279223888
186 186 0.5088634919298334
187 186 -0.24975603735306007
186 187 -0.24975603735305998
187 187 0.4980895105139754
188 187 -0.24975053857859977
187 188 -0.24975053857859986
188 188 0.49904845853687463
189 188 -0.24833752383327104
188 189 -0.24833752383327104
189 189 0.49739689207806337
190 189 0.2498958013485774
189 190 0.24989580134857758
190 190 0.49853067322323613
191 190 0.2512538486218152
190 191 0.2512538486218154
191 191 0.49509001899981797
192 191 0.24976799130752003
191 192 0.2497679913075201
192 192 0.5108114666772995
193 192 -0.24722455439068058
192 193 -0.24722455439068053
193 193 0.4892625075260222
194 193 0.2546753856835047
193 194 0.25467538568350473
194 194 0.5057736790294516
195 194 0.24732791902276835
194 195 0.24732791902276827
195 195 0.5006727820387625
196 195 0.2481707729232072
195 196 0.24817077292320705
196 196 0.5001497718794687
197 196 -0.25261598024852894
196 197 -0.252615980248529
197 197 0.5048408213264092
198 197 -0.249487026389915
197 198 -0.24948702638991493
198 198 0.4958404108335023
199 198 0.2490482527291376
198 199 0.2490482527291373
199 199 0.5076431909289294
200 199 0.252234931979012
199 200 0.25223493197901176
200 200 0.4969269287508768
201 200 0.24888077523330449
200 201 0.24888077523330462
201 201 0.4938251955639106
202 201 0.2477009057651218
201 202 0.2477009057651217
202 202 0.5007335892629627
203 202 0.25094237760542476
202 203 0.25094237760542476
203 203 0.5036767276717301
204 203 -0.2516511156425997
203 204 -0.2516511156425996
204 204 0.5035069876744682
205 204 -0.24925035943757248
204 205 -0.24925035943757243
205 205 0.5016828516186659
206 205 -0.24760483880671683
205 206 -0.2476048388067167
206 206 0.4932893426357927
207 206 -0.24789257428956418
206 207 -0.2478925742895641
207 207 0.5032044237567358
208 207 -0.25141507057273543
207 208 -0.2514150705727354
208 208 0.493824773702723
209 208 0.25207720570854
208 209 0.2520772057085402
209 209 0.5054387853331233
210 209 -0.2500829052772966
209 210 -0.2500829052772967
210 210 0.49761217813348657
211 210 -0.2492142595686438
210 211 -0.24921425956864382
211 211 0.4959978107479709
212 211 0.2447916598627093
211 212 0.2447916598627092
212 212 0.49444798181235616
213 212 -0.2522584791981389
212 213 -0.2522584791981389
213 213 0.5081229192133083
214 213 -0.25319744902570135
213 214 -0.25319744902570124
214 214 0.506501068412165
215 214 -0.2502817720187075
214 215 -0.25028177201870755
215 215 0.4999059026895035
216 215 0.24495386190559126
215 216 0.24495386190559126
216 216 0.4951887304556989
217 216 -0.24833475361007748
216 217 -0.24833475361007745
217 217 0.49074164729022673
218 217 0.2509078539766377
217 218 0.25090785397663773
218 218 0.5136702254558001
219 218 0.24874842951305962
218 219 0.24874842951305967
219 219 0.500467061732276
220 219 -0.2506303532784316
219 220 -0.25063035327843153
220 220 0.501824011158125
221 220 0.24684359483401672
220 221 0.24684359483401674
221 221 0.4964394759193557
222 221 -0.2561572308337855
221 222 -0.2561572308337856
222 222 0.5030867459539721
223 222 -0.2474446576907773
222 223 -0.24744465769077728
223 223 0.4927870327007314
224 223 0.2499949390831777
223 224 0.24999493908317771
224 224 0.5025010966652412
225 224 0.24886505882698923
224 225 0.24886505882698928
225 225 0.498087562018004
226 225 -0.24999784819172066
225 226 -0.24999784819172063
226 226 0.5048662656078222
227 226 -0.2525672874565545
226 227 -0.25256728745655443
227 227 0.49971900305719424
228 227 -0.24825245656892478
227 228 -0.24825245656892472
228 228 0.5013811126141386
229 228 -0.2519973171489421
228 229 -0.2519973171489422
229 229 0.49422671153582065
230 229 -0.245065856750362
229 230 -0.24506585675036208
230 230 0.504173233235189
231 230 -0.251189828602732
230 231 -0.251189828602732
231 231 0.4963890581872803
232 231 -0.2512632118466442
231 232 -0.251263211846644
232 232 0.49866426951902965
233 232 0.2508516011406527
232 233 0.2508516011406528
233 233 0.4987331372609689
234 233 0.25063955780141045
233 234 0.2506395578014103
234 234 0.5006200500305698
235 234 -0.24575955249619574
234 235 -0.24575955249619574
235 235 0.5076931064946156
236 235 0.24798374866112113
235 236 0.24798374866112113
236 236 0.49308058424968515
237 236 0.25102162192434724
236 237 0.251021621924347
237 237 0.5028675484206093
238 237 -0.25090233279945406
237 238 -0.250902332799454
238 238 0.5011548176189649
239 238 0.25256681562058364
238 239 0.2525668156205835
239 239 0.5018461187984872
240 239 0.24482333052345356
239 240 0.24482333052345348
240 240 0.49955008238370585
241 240 -0.2502332373819154
240 241 -0.2502332373819152
241 241 0.5017447778422345
242 241 -0.2522813883468796
241 242 -0.2522813883468797
242 242 0.5001992935692685
243 242 0.24608303238054086
242 243 0.24608303238054088
243 243 0.49659110838376863
244 243 -0.252224653697196
243 244 -0.25222465369719616
244 244 0.5043693889141866
245 244 0.24855108276794896
244 245 0.24855108276794916
245 245 0.49905309574761886
246 245 -0.24803337637478812
245 246 -0.24803337637478803
246 246 0.49811370968215835
247 246 0.24964809751646122
246 247 0.24964809751646133
247 247 0.5044289575487115
248 247 0.24967488760710146
247 248 0.24967488760710146
248 248 0.5010893497320241
249 248 -0.25276028750562685
248 249 -0.25276028750562685
249 249 0.5005710080182946
250 249 0.24747752488493033
249 250 0.2474775248849303
250 250 0.5044216401693276
251 250 -0.25158597232791524
250 251 -0.25158597232791524
251 251 0.49862034037153025
252 251 -0.2482236026332046
251 252 -0.24822360263320445
252 252 0.49999100522047063
253 252 -0.2466962749103168
252 253 -0.24669627491031668
253 253 0.5026834726489381
254 253 0.2506334441073531
253 254 0.25063344410735305
254 254 0.49340606185458424
255 254 0.2467664196259997
254 255 0.24676641962599988
255 255 0.5032037828602076
256 255 0.25192574836066955
255 256 0.2519257483606695
256 256 0.49738213104690165
257 256 0.2515758898627379
256 257 0.2515758898627379
257 257 0.500302152152696
258 257 -0.2517085364812829
257 258 -0.2517085364812829
258 258 0.4989904944973562
259 258 -0.24713084010207906
258 259 -0.2471308401020789
259 259 0.49699889984474466
260 259 -0.2499254409638449
259 260 -0.24992544096384503
260 260 0.4985732777009143
261 260 -0.24724450986986926
260 261 -0.2472445098698693
261 261 0.49642498283489855
262 261 0.2504551892492385
261 262 0.25045518924923826
262 262 0.49120558553801663
263 262 -0.24882815409909773
262 263 -0.24882815409909764
263 263 0.5041359925945197
264 263 0.25157365059268844
263 264 0.25157365059268827
264 264 0.4992023395593122
265 264 -0.24748234304025282
264 265 -0.24748234304025277
265 265 0.5019611502467327
266 265 0.2502344182129167
265 266 0.2502344182129167
266 266 0.5026478304903375
267 266 -0.24958020963179278
266 267 -0.24958020963179264
267 267 0.5034938704239551
268 267 0.2510345391898775
267 268 0.2510345391898777
268 268 0.5020106103232854
269 268 0.24976892686193153
268 269 0.24976892686193164
269 269 0.5026485520487203
270 269 -0.2489956107388272
269 270 -0.24899561073882737
270 270 0.5014012384066278
271 270 -0.2494862234956888
270 271 -0.24948622349568902
271 271 0.49626076154045806
272 271 0.24699879036379863
271 272 0.24699879036379832
272 272 0.49673044259458965
273 272 -0.25282108142207665
272 273 -0.2528210814220767
273 273 0.5046808814159754
274 273 -0.24955277468715878
273 274 -0.2495527746871587
274 274 0.5069115321430824
275 274 -0.25137753501415844
274 275 -0.2513775350141586
275 275 0.4966053938023215
276 275 0.24937133831504885
275 276 0.24937133831504874
276 276 0.5005665134346435
277 276 -0.2463573560585023
276 277 -0.24635735605850223
277 277 0.4935998789750741
278 277 -0.25080918513627
277 278 -0.25080918513627
278 278 0.5031379971950225
279 278 -0.24687592951081905
278 279 -0.24687592951081885
279 279 0.4991581718346957
280 279 0.24991520921064952
279 280 0.24991520921064955
280 280 0.49789603125486936
281 280 -0.2486316011196468
280 281 -0.24863160111964686
281 281 0.4998947510600684
282 281 0.24951398276970604
281 282 0.249513982769706
282 282 0.4983530005429456
283 282 -0.2519032860786119
282 283 -0.25190328607861173
283 283 0.5018373745151186
284 283 -0.2446989543695892
283 284 -0.24469895436958902
284 284 0.4971017361115418
285 284 0.25025587686207007
284 285 0.2502558768620701
285 285 0.5130822018872161
286 285 -0.25186587911847547
285 286 -0.2518658791184755
286 286 0.4970712448907114
287 286 -0.24780886965290735
286 287 -0.24780886965290747
287 287 0.49427635875740006
288 287 0.2505992001355146
287 288 0.25059920013551457
288 288 0.5064516054860893
289 288 -0.2466931987572066
288 289 -0.24669319875720658
289 289 0.49638445140042853
290 289 -0.24736678958719063
289 290 -0.24736678958719058
290 290 0.5051445345095252
291 290 0.2519801711204941
290 291 0.251980171120494
291 291 0.491913207541176
292 291 -0.24882005826005257
291 292 -0.2488200582600526
292 292 0.4997820221791235
293 292 -0.25058918417559145
292 293 -0.25058918417559145
293 293 0.503706362972049
294 293 0.24736358628935323
293 294 0.24736358628935323
294 294 0.494055106115256
295 294 -0.2490119065404745
294 295 -0.24901190654047448
295 295 0.501762874626607
296 295 0.25063649048065834
295 296 0.25063649048065834
296 296 0.4970092299158794
297 296 0.25169055687018643
296 297 0.2516905568701864
297 297 0.5065012234186685
298 297 0.24936119361124112
297 298 0.24936119361124115
298 298 0.5022354041386033
299 298 -0.24859360426117613
298 299 -0.24859360426117624
299 299 0.49904350965352345
300 299 -0.25002204041028125
299 300 -0.2500220404102815
300 300 0.503262988790774
301 300 -0.24982477484114082
300 301 -0.249824774841141
301 301 0.4891680230340867
302 301 -0.247914418530685
301 302 -0.24791441853068488
302 302 0.49508144255621095
303 302 -0.2530259891737128
302 303 -0.2530259891737129
303 303 0.5085019441194976
304 303 0.24630220956226134
303 304 0.24630220956226123
304 304 0.507907299634096
305 304 -0.24596601517799366
304 305 -0.24596601517799352
305 305 0.49750058499000754
306 305 -0.2527291181131096
305 306 -0.2527291181131095
306 306 0.49412748656429034
307 306 -0.24834440231601027
306 307 -0.24834440231601038
307 307 0.4999990374223437
308 307 0.24745596296392464
307 308 0.24745596296392455
308 308 0.4989732779081314
309 308 0.24773800826766074
308 309 0.24773800826766076
309 309 0.49637961787468016
310 309 0.25363057144286416
309 310 0.25363057144286416
310 310 0.5040545875137866
311 310 0.24857359732334589
310 311 0.24857359732334586
311 311 0.4970615062277211
312 311 0.2490162362523878
311 312 0.24901623625238775
312 312 0.5057220340568727
313 312 -0.24878019979321914
312 313 -0.24878019979321905
313 313 0.5021910505232162
314 313 -0.2543237572797439
313 314 -0.2543237572797439
314 314 0.5012300144678195
315 314 0.2453080037390398
314 315 0.24530800373903972
315 315 0.49295936197741913
316 315 -0.2485013685989537
315 316 -0.2485013685989537
316 316 0.5016268090434768
317 316 -0.2493154254683411
316 317 -0.24931542546834118
317 317 0.49729738808843377
318 317 0.2520077561108213
317 318 0.25200775611082127
318 318 0.510223290607273
319 318 0.2482653727149861
318 319 0.24826537271498605
319 319 0.49823612687131685
320 319 -0.24849899091234554
319 320 -0.24849899091234573
320 320 0.49323298705536794
321 320 -0.24773918386771349
320 321 -0.2477391838677136
321 321 0.5008262190351577
322 321 0.25097423303476996
321 322 0.25097423303477
322 322 0.5068132692453022
323 322 0.2505866419237089
322 323 0.2505866419237089
323 323 0.5068823003534528
324 323 -0.24450074227443389
323 324 -0.24450074227443402
324 324 0.49064277694104347
325 324 -0.25122239369597454
324 325 -0.25122239369597466
325 325 0.5000741147791946
326 325 0.24463335893098656
325 326 0.24463335893098656
326 326 0.5038940572928663
327 326 -0.2490877473149674
326 327 -0.24908774731496722
327 327 0.49475205265203637
328 327 0.2517268539777625
327 328 0.25172685397776234
328 328 0.49756446754064676
329 328 -0.24909370752523816
328 329 -0.2490937075252381
329 329 0.49299073359450546
330 329 0.24403426167183992
329 330 0.24403426167183984
330 330 0.5059974876290214
331 330 -0.2522112073496236
330 331 -0.25221120734962366
331 331 0.49688771247029495
332 331 -0.24812267167217225
331 332 -0.24812267167217222
332 332 0.5059695917581191
333 332 -0.2509397027853147
332 333 -0.25093970278531463
333 333 0.5005189215662738
334 333 0.24770566545566416
333 334 0.24770566545566422
334 334 0.49900526198989653
335 334 0.2491643611043662
334 335 0.24916436110436624
335 335 0.49894016305344246
336 335 -0.24678389186002464
335 336 -0.24678389186002453
336 336 0.5016251119332034
337 336 -0.2526780027739826
336 337 -0.2526780027739826
337 337 0.49818243024074027
338 337 0.2453719643128686
337 338 0.2453719643128685
338 338 0.5046605018433536
339 338 -0.2505353523342427
338 339 -0.2505353523342429
339 339 0.5015869700652704
340 339 -0.24864087848280186
339 340 -0.2486408784828019
340 340 0.49922564430363564
341 340 0.2485682072385407
340 341 0.24856820723854078
341 341 0.5017197370938175
342 341 0.24954680865840345
341 342 0.2495468086584034
342 342 0.5041370461174621
343 342 0.24926798410155193
342 343 0.24926798410155201
343 343 0.49401420987579836
344 343 -0.24868632599810836
343 344 -0.24868632599810836
344 344 0.5000591820814771
345 344 0.2493244404272694
344 345 0.2493244404272693
345 345 0.5018081607016657
346 345 0.24817074840977815
345 346 0.24817074840977815
346 346 0.4946452508745667
347 346 0.24984285767348535
346 347 0.2498428576734853
347 347 0.5014956721924877
348 347 0.24873719873458017
347 348 0.24873719873458017
348 348 0.4998845035492996
349 348 -0.2522160656263885
348 349 -0.25221606562638854
349 349 0.4972419152881603
350 349 -0.2511153402010028
349 350 -0.2511153402010029
350 350 0.5003429682949958
351 350 -0.2454536635067559
350 351 -0.24545366350675601
351 351 0.49956822591731137
352 351 -0.25076331514752315
351 352 -0.25076331514752326
352 352 0.5065677990738797
353 352 0.24754229493400534
352 353 0.2475422949340053
353 353 0.49671232001783305
354 353 -0.2468035430543934
353 354 -0.24680354305439348
354 354 0.4949033851883276
355 354 -0.2507602659131003
354 355 -0.25076026591310036
355 355 0.49987191323028823
356 355 0.250791478219204
355 356 0.2507914782192039
356 356 0.5021106609524111
357 356 0.2460661572901417
356 357 0.24606615729014167
357 357 0.4957048765544898
358 357 0.24940092216893553
357 358 0.24940092216893558
358 358 0.5058744289442735
359 358 0.25175016892297647
358 359 0.2517501689229765
359 359 0.498924058988393
360 359 -0.24639716955316113
359 360 -0.246397169553161
360 360 0.4966972355189981
361 360 -0.2555471036158952
360 361 -0.2555471036158952
361 361 0.5017451132255875
362 361 0.24734731792022896
361 362 0.24734731792022885
362 362 0.505093630450351
363 362 -0.24823032623634977
362 363 -0.24823032623634977
363 363 0.5026102006624965
364 363 -0.2501845720322231
363 364 -0.25018457203222316
364 364 0.5025061639408904
365 364 -0.24573379092240735
364 365 -0.2457337909224075
365 365 0.49599311624695486
366 365 0.2508106669915368
365 366 0.25081066699153687
366 366 0.5004187370555888
367 366 0.2481095589898106
366 367 0.24810955898981057
367 367 0.5016278057513358
368 367 -0.2442388681661193
367 368 -0.24423886816611937
368 368 0.4969789458388594
369 368 -0.25138036288560767
368 369 -0.2513803628856077
369 369 0.501336113322957
370 369 0.24894291388661316
369 370 0.24894291388661316
370 370 0.49908253677519143
371 370 -0.24802824473004217
370 371 -0.24802824473004215
371 371 0.5001488506722271
372 371 -0.2519318350225423
371 372 -0.25193183502254235
372 372 0.5068108413503153
373 372 0.24520130297755144
372 373 0.2452013029775514
373 373 0.4928911122316857
374 373 0.2474152522731178
373 374 0.24741525227311784
374 374 0.4989100983309203
375 374 0.2500986841707518
374 375 0.2500986841707519
375 375 0.4957681500443226
376 375 -0.24506846814369937
375 376 -0.24506846814369937
376 376 0.5039954806256224
377 376 0.25491725781114993
376 377 0.25491725781114993
377 377 0.4957781507384563
378 377 0.24684419013365314
377 378 0.24684419013365305
378 378 0.5025170007838496
379 378 0.24812644385215193
378 379 0.24812644385215202
379 379 0.5025545473111688
380 379 -0.24988684266704664
379 380 -0.2498868426670466
380 380 0.4954991253255289
381 380 -0.24951624682954565
380 381 -0.24951624682954554
381 381 0.5047002181609448
382 381 -0.25070140883321734
381 382 -0.2507014088332174
382 382 0.5027225284119549
383 382 -0.25137482950771045
382 383 -0.25137482950771034
383 383 0.50069586041441
384 383 -0.24616225887743526
383 384 -0.24616225887743506
384 384 0.5036180726400699
385 384 0.24850130886893154
384 385 0.24850130886893151
385 385 0.4997619015441283
386 385 -0.24488496476366622
385 386 -0.2448849647636663
386 386 0.49378375188458096
387 386 0.2514865742281095
386 387 0.25148657422810955
387 387 0.49625367705832685
388 387 -0.2494056388365463
387 388 -0.2494056388365463
388 388 0.5009609765370908
389 388 0.24697145789253797
388 389 0.2469714578925379
389 389 0.5020481381101204
390 389 -0.24705185711764333
389 390 -0.24705185711764321
390 390 0.5000976734968994
391 390 -0.25418338998112494
390 391 -0.25418338998112494
391 391 0.497021177889016
392 391 -0.2502807057353234
391 392 -0.25028070573532324
392 392 0.5031755774773342
393 392 0.247064631370717
392 393 0.24706463137071705
393 393 0.5006321240101855
394 393 -0.24644631412205215
393 394 -0.24644631412205228
394 394 0.5071883202196314
395 394 0.2521534531093815
394 395 0.2521534531093816
395 395 0.4932295280672482
396 395 -0.24833135084407856
395 396 -0.2483313508440786
396 396 0.4971114090454134
397 396 0.2440168184535617
396 397 0.24401681845356166
397 397 0.5019440129087968
398 397 0.25229063746757735
397 398 0.25229063746757735
398 398 0.49348337512806373
399 398 0.24684863183269887
398 399 0.24684863183269873
399 399 0.5085498582532049
400 399 -0.25035494397889624
399 400 -0.25035494397889635
400 400 0.4978440371823434
401 400 -0.254539749657049
400 401 -0.254539749657049
401 401 0.5030979197080921
402 401 -0.24343229144274925
401 402 -0.2434322914427492
402 402 0.49784793406163946
403 402 -0.25110182735223696
402 403 -0.251101827352237
403 403 0.5022963641341205
404 403 0.2464625939099322
403 404 0.24646259390993214
404 404 0.4965352734407985
405 404 -0.24775487890348374
404 405 -0.24775487890348377
405 405 0.49898011181854185
406 405 0.24999708242045704
405 406 0.24999708242045707
406 406 0.4999165924190526
407 406 0.24620622755764454
406 407 0.24620622755764424
407 407 0.500626020580867
408 407 -0.24920148781954285
407 408 -0.24920148781954288
408 408 0.5012267250038973
409 408 0.2521097154335978
408 409 0.2521097154335976
409 409 0.5016169360887933
410 409 0.24882332190550516
409 410 0.24882332190550516
410 410 0.5051250297241071
411 410 0.24841129590080246
410 411 0.2484112959008023
411 411 0.4995493479530076
412 411 -0.24413374692953727
411 412 -0.24413374692953702
412 412 0.5009411663366549
413 412 -0.2500868462046121
412 413 -0.2500868462046122
413 413 0.49437146112090496
414 413 -0.249317141202767
413 414 -0.2493171412027669
414 414 0.5032877728201236
415 414 0.24854244873877054
414 415 0.24854244873877068
415 415 0.5000394136446046
416 415 -0.2474941616994562
415 416 -0.2474941616994564
416 416 0.5049381503435528
417 416 -0.25165639771813514
416 417 -0.25165639771813525
417 417 0.495833407166169
418 417 0.24786050175985225
417 418 0.24786050175985225
418 418 0.49642717235306777
419 418 0.2462732550736834
418 419 0.24627325507368325
419 419 0.4985524062250513
420 419 0.25162709804069155
419 420 0.2516270980406913
420 420 0.5024519983622913
421 420 -0.2477568079444004
420 421 -0.24775680794440033
421 421 0.4988075105257771
422 421 -0.25050073377269955
421 422 -0.25050073377269966
422 422 0.502375754535737
423 422 0.24793951437583173
422 423 0.24793951437583175
423 423 0.49527198978793324
424 423 0.24885606445930913
423 424 0.248856064459309
424 424 0.4976599293312253
425 424 0.24933375646794084
424 425 0.24933375646794098
425 425 0.48963629256742164
426 425 0.24563627860148035
425 426 0.2456362786014803
426 426 0.5067553756689321
427 426 -0.24770729435312003
426 427 -0.24770729435312017
427 427 0.5015373045774294
428 427 -0.24787626087007433
427 428 -0.24787626087007447
428 428 0.49523375850280127
429 428 -0.248669832160433
428 429 -0.24866983216043287
429 429 0.5034292456757761
430 429 -0.24940246240860184
429 430 -0.24940246240860192
430 430 0.5004319363901754
431 430 0.2501112711508234
430 431 0.25011127115082343
431 431 0.504228753246841
432 431 -0.24344306828851192
431 432 -0.24344306828851198
432 432 0.503113986925372
433 432 -0.2511045316654142
432 433 -0.25110453166541424
433 433 0.49492088493721603
434 433 -0.24342286508102845
433 434 -0.24342286508102842
434 434 0.5003764663484228
435 434 -0.2503964921459165
434 435 -0.2503964921459166
435 435 0.49821437313597516
436 435 0.24761150750064834
435 436 0.2476115075006483
436 436 0.49759025839403254
437 436 0.24779631347221928
436 437 0.24779631347221923
437 437 0.49512046702104606
438 437 -0.25070242881629756
437 438 -0.25070242881629756
438 438 0.5064635099979647
439 438 0.2510767324854939
438 439 0.25107673248549406
439 439 0.5002074590396435
440 439 -0.24869137840427288
439 440 -0.2486913784042727
440 440 0.4986597230277864
441 440 0.2494386888989607
440 441 0.2494386888989608
441 441 0.49670384551521707
442 441 0.24565634624903626
441 442 0.24565634624903632
442 442 0.5043739582063272
443 442 -0.24977012672279805
442 443 -0.24977012672279802
443 443 0.500524788084251
444 443 0.24733579156949692
443 444 0.24733579156949695
444 444 0.49686573111277504
445 444 0.24693303466263222
444 445 0.2469330346626323
445 445 0.5090520149459351
446 445 0.25044706160155294
445 446 0.25044706160155294
446 446 0.4962915760614885
447 446 -0.24758126341415843
446 447 -0.24758126341415831
447 447 0.5017841856230678
448 447 -0.24798780345046698
447 448 -0.24798780345046695
448 448 0.4953608793715612
449 448 0.24591704378060517
448 449 0.24591704378060508
449 449 0.5069657385579419
450 449 0.25051024437653446
449 450 0.25051024437653446
450 450 0.49561546358571906
451 450 0.24952602790684342
450 451 0.24952602790684336
451 451 0.49924433371639204
452 451 0.24784851910545774
451 452 0.24784851910545744
452 452 0.49672292417482966
453 452 0.24697323048967926
452 453 0.24697323048967917
453 453 0.5070077772525432
454 453 0.24708449529681453
453 454 0.24708449529681453
454 454 0.4932332810204477
455 454 -0.24666744530459003
454 455 -0.24666744530459023
455 455 0.49403522641557013
456 455 -0.24830101323532847
455 456 -0.24830101323532833
456 456 0.5038302692101122
457 456 0.25090428061195597
456 457 0.2509042806119559
457 457 0.5077663011955592
458 457 0.2471810345526745
457 458 0.2471810345526744
458 458 0.4993815960677115
459 458 0.24858815724682304
458 459 0.24858815724682323
459 459 0.49661398516601907
460 459 -0.2471836528212472
459 460 -0.247183652821247
460 460 0.505959227846398
461 460 -0.25086902879791323
460 461 -0.2508690287979134
461 461 0.5012834148447727
462 461 0.24978012793320872
461 462 0.2497801279332088
462 462 0.49655895600982647
463 462 -0.24960553259624807
462 463 -0.24960553259624788
463 463 0.5059407997653855
464 463 -0.24729895257535264
463 464 -0.24729895257535284
464 464 0.49483360786088965
465 464 0.2500606758482585
464 465 0.25006067584825853
465 465 0.4990646962925932
466 465 -0.24829953793959003
465 466 -0.24829953793959011
466 466 0.4963765772651599
467 466 -0.2467524109484859
466 467 -0.24675241094848577
467 467 0.5015556163484672
468 467 0.2520814324737998
467 468 0.2520814324737999
468 468 0.4977360577383629
469 468 0.2474204183404665
468 469 0.2474204183404664
469 469 0.5012841075994182
470 469 0.24668101490526897
469 470 0.24668101490526892
470 470 0.48997906920174045
471 470 -0.24730910454796673
470 471 -0.24730910454796673
471 471 0.5075602935395792
472 471 0.25046568315678625
471 472 0.25046568315678625
472 472 0.5006227359812165
473 472 -0.24717274454967972
472 473 -0.2471727445496796
473 473 0.49866371464327763
474 473 0.2484491758612243
473 474 0.2484491758612243
474 474 0.4951027275470861
475 474 -0.24640939165995207
474 475 -0.24640939165995207
475 475 0.49849805285440735
476 475 -0.25061004512268725
475 476 -0.25061004512268686
476 476 0.5027559959144025
477 476 -0.24589116592565047
476 477 -0.24589116592565052
477 477 0.498701529710202
478 477 0.24580635696727798
477 478 0.2458063569672781
478 478 0.497964440666749
479 478 -0.24788883863670624
478 479 -0.2478888386367063
479 479 0.5060362925917243
480 479 -0.24975119306511365
479 480 -0.24975119306511345
480 480 0.4922986227626121
481 480 -0.24674196442708018
480 481 -0.24674196442708035
481 481 0.498054694395262
482 481 0.24505582137806317
481 482 0.24505582137806323
482 482 0.5045518447913918
483 482 -0.2500811714169529
482 483 -0.2500811714169527
483 483 0.4953717075746106
484 483 0.2496892761188323
483 484 0.24968927611883238
484 484 0.4969667403061563
485 484 -0.24618498632193278
484 485 -0.24618498632193275
485 485 0.49772939241344427
486 485 -0.24953336511733243
485 486 -0.2495333651173324
486 486 0.5064932534690678
487 486 0.2465276274929897
486 487 0.24652762749298954
487 487 0.49782344372254017
488 487 -0.2489251117466468
487 488 -0.2489251117466469
488 488 0.5078409998847262
489 488 0.24679282343065106
488 489 0.24679282343065104
489 489 0.4949810479436436
490 489 0.24874403141510126
489 490 0.24874403141510132
490 490 0.4992186519848093
491 490 0.2490610139353701
490 491 0.24906101393537028
491 491 0.49689195859907576
492 491 0.24738416238540603
491 492 0.24738416238540598
492 492 0.5061678160056529
493 492 0.2500659234829667
492 493 0.25006592348296686
493 493 0.49457994633882757
494 493 0.25037231913674235
493 494 0.25037231913674235
494 494 0.4990890061797507
495 494 -0.24351593951255698
494 495 -0.24351593951255682
495 495 0.5042321912859693
496 495 -0.2500740164834179
495 496 -0.25007401648341804
496 496 0.4998038704344949
497 496 -0.24553581000704855
496 497 -0.24553581000704866
497 497 0.5038359170038316
498 497 0.25296060380673047
497 498 0.25296060380673036
498 498 0.5021597054951376
499 498 0.24580155455272212
498 499 0.24580155455272204
499 499 0.4976679511109435
500 499 0.24608189401292485
499 500 0.24608189401292488
500 500 0.5028908130112333
501 500 0.24771339232960105
500 501 0.2477133923296011
501 501 0.505146061687977
502 501 -0.2513683468875645
501 502 -0.2513683468875644
502 502 0.4906855350194158
503 502 0.24654500329962
502 503 0.24654500329962
503 503 0.4991377176511278
504 503 -0.2479868019888076
503 504 -0.2479868019888077
504 504 0.49627283963636865
505 504 0.2485840577290699
504 505 0.24858405772906997
505 505 0.5027107935983294
506 505 -0.24554067464325563
505 506 -0.2455406746432557
506 506 0.5013218352663731
507 506 -0.24934570107354365
506 507 -0.2493457010735437
507 507 0.4994893297282329
508 507 -0.25105991136370964
507 508 -0.25105991136370964
508 508 0.5008209717265883
509 508 0.24851394502450178
508 509 0.24851394502450178
509 509 0.500928790041862
510 509 0.24630033409690594
509 510 0.2463003340969059
510 510 0.4954910015454081
511 510 -0.24488526553766296
510 511 -0.244885265537663
511 511 0.49311065623756656
512 511 -0.24959271550966983
511 512 -0.24959271550966977
512 512 0.5104629176135923
513 512 0.2467524853867141
512 513 0.24675248538671404
513 513 0.4889328372766841
514 513 0.2525433228314617
513 514 0.2525433228314617
514 514 0.5112113306939832
515 514 0.25114372144786595
514 515 0.251143721447866
515 515 0.4948941763134531
516 515 0.24397012095471185
515 516 0.24397012095471193
516 516 0.5036764437189943
517 516 -0.24783398619810076
516 517 -0.24783398619810063
517 517 0.5007709271568428
518 517 0.2487239230429395
517 518 0.24872392304293955
518 518 0.5086491363027923
519 518 -0.24593497103444803
518 519 -0.245934971034448
519 519 0.49858601610951114
520 519 -0.2511871095522804
519 520 -0.2511871095522803
520 520 0.5059446538214816
521 520 0.24561758916661083
520 521 0.24561758916661064
521 521 0.5009364784656309
522 521 -0.24780395936279337
521 522 -0.24780395936279342
522 522 0.49603325357109107
523 522 0.2460699947584873
522 523 0.2460699947584873
523 523 0.4988156087407433
524 523 0.24612368999367276
523 524 0.24612368999367262
524 524 0.49323561358750023
525 524 -0.2485252753930096
524 525 -0.24852527539300948
525 525 0.5105534390102013
526 525 0.24261183973077688
525 526 0.24261183973077677
526 526 0.49224551858273324
527 526 0.25018701368638663
526 527 0.25018701368638674
527 527 0.5027342085142573
528 527 -0.24640088592694098
527 528 -0.24640088592694093
528 528 0.4923773907426759
529 528 -0.24913936611926088
528 529 -0.24913936611926094
529 529 0.5066736557725002
530 529 -0.24754406480079333
529 530 -0.24754406480079352
530 530 0.49692905181856445
531 530 0.25232218416157803
530 531 0.2523221841615779
531 531 0.5051327906044232
532 531 0.24461726858929614
531 532 0.24461726858929592
532 532 0.49245045632067763
533 532 0.24838548226284402
532 533 0.24838548226284407
533 533 0.504698515653907
534 533 -0.2479813136969755
533 534 -0.24798131369697549
534 534 0.4928863370418286
535 534 0.24749150538468823
534 535 0.24749150538468834
535 535 0.5001580153270273
536 535 -0.25219400212844345
535 536 -0.25219400212844356
536 536 0.5016753378658203
537 536 -0.25197955613173895
536 537 -0.251979556131739
537 537 0.5080155894872409
538 537 0.24419189540878622
537 538 0.2441918954087862
538 538 0.5008831977200621
539 538 -0.25216928091071406
538 539 -0.2521692809107143
539 539 0.4994654452581603
540 539 0.245718866746633
539 540 0.24571886674663296
540 540 0.5019851051861379
541 540 -0.24589274293243477
540 541 -0.2458927429324347
541 541 0.49805682115842276
542 541 0.2446220374245994
541 542 0.2446220374245993
542 542 0.4973214811209133
543 542 0.24675475041588132
542 543 0.24675475041588146
543 543 0.4943064365536179
544 543 -0.24826600457921805
543 544 -0.24826600457921805
544 544 0.5059980921299991
545 544 0.25034018321486234
544 545 0.2503401832148623
545 545 0.498695010934613
546 545 -0.2428373083428963
545 546 -0.24283730834289635
546 546 0.49744675211182515
547 546 0.24991291989080433
546 547 0.24991291989080439
547 547 0.5020927835124016
548 547 0.2503321194291543
547 548 0.2503321194291543
548 548 0.49779991713825233
549 548 0.24899265944732754
548 549 0.2489926594473277
549 549 0.503692487630606
550 549 -0.24762221166680845
549 550 -0.24762221166680845
550 550 0.4900722943170727
551 550 0.24497329377075727
550 551 0.24497329377075724
551 551 0.5039487634815879
552 551 -0.24778354276974884
551 552 -0.24778354276974882
552 552 0.5068155878306163
553 552 -0.25358887654330614
552 553 -0.2535888765433062
553 553 0.48829874156147207
554 553 -0.24734679811209573
553 554 -0.24734679811209576
554 554 0.5034366984592817
555 554 0.24595206357510055
554 555 0.24595206357510052
555 555 0.4876682710105941
556 555 0.24865820601857735
555 556 0.24865820601857724
556 556 0.5043663086249832
557 556 0.24842376777719807
556 557 0.24842376777719816
557 557 0.5038207227877347
558 557 -0.24741855504819568
557 558 -0.24741855504819568
558 558 0.5008230457657046
559 558 -0.24600127778587422
558 559 -0.24600127778587447
559 559 0.5037666577200779
560 559 0.2502582549820852
559 560 0.2502582549820855
560 560 0.495353975770454
561 560 0.25079628254376995
560 561 0.25079628254377
561 561 0.5004452151173645
562 561 -0.24617172279026858
561 562 -0.24617172279026853
562 562 0.4985210082588212
563 562 -0.243927525368076
562 563 -0.2439275253680759
563 563 0.4999699062338039
564 563 -0.24506652315353886
563 564 -0.24506652315353902
564 564 0.49658153262197224
565 564 -0.2494600869570422
564 565 -0.24946008695704222
565 565 0.4995167197857887
566 565 0.2513055516955072
565 566 0.2513055516955073
566 566 0.501054399886759
567 566 0.24762386086992175
566 567 0.24762386086992175
567 567 0.49938526962073976
568 567 -0.24643047941684254
567 568 -0.24643047941684268
568 568 0.49827418744124213
569 568 0.24828329803091523
568 569 0.2482832980309152
569 569 0.5007986200721248
570 569 -0.2481651098369869
569 570 -0.24816510983698697
570 570 0.5042337561065191
571 570 0.24562412598235656
570 571 0.24562412598235653
571 571 0.5011040228932198
572 571 0.2509000205210235
571 572 0.25090002052102356
572 572 0.4993447651968084
573 572 -0.24562357155081513
572 573 -0.24562357155081513
573 573 0.4988629011528647
574 573 -0.25016876848135405
573 574 -0.2501687684813541
574 574 0.5025531912547273
575 574 -0.24289667156471717
574 575 -0.24289667156471728
575 575 0.49497870301851715
576 575 -0.24663650966973533
575 576 -0.2466365096697353
576 576 0.4926070499305434
577 576 -0.24939936145113578
576 577 -0.24939936145113573
577 577 0.5033703945500473
578 577 -0.24872465963444984
577 578 -0.24872465963444979
578 578 0.4905350719097684
579 578 0.24907074319967265
578 579 0.24907074319967243
579 579 0.5117882261392701
580 579 0.24980450945273885
579 580 0.24980450945273872
580 580 0.49300949402736677
581 580 0.2474940939158241
580 581 0.247494093915824
581 581 0.5023850931981314
582 581 -0.24470428579338535
581 582 -0.2447042857933853
582 582 0.5040297778197669
583 582 -0.2484302451140623
582 583 -0.24843024511406214
583 583 0.5066544874745484
584 583 0.24458622770273664
583 584 0.2445862277027367
584 584 0.49449487178050333
585 584 0.2480203628222506
584 585 0.2480203628222507
585 585 0.49769782719545774
586 585 0.24584514784107844
585 586 0.2458451478410784
586 586 0.5035869879155316
587 586 -0.25108746439804175
586 587 -0.2510874643980418
587 587 0.4962529110723059
588 587 -0.24420048584815823
587 588 -0.24420048584815804
588 588 0.5051036706847409
589 588 0.25028655082909335
588 589 0.2502865508290934
589 589 0.49552445137769596
590 589 -0.2444916416905873
589 590 -0.24449164169058732
590 590 0.5025314261440741
591 590 -0.24795425534636983
590 591 -0.24795425534636967
591 591 0.50067732034097
592 591 -0.240669286378258
591 592 -0.2406692863782579
592 592 0.4985348075663546
593 592 -0.24683889718650615
592 593 -0.24683889718650612
593 593 0.5045245769278572
594 593 0.24880172254550606
593 594 0.24880172254550612
594 594 0.490871931921625
595 594 -0.2473878276718737
594 595 -0.24738782767187367
595 595 0.5031903762426195
596 595 0.24856597290962595
595 596 0.24856597290962607
596 596 0.5060381271605737
597 596 0.2414754401804936
596 597 0.24147544018049363
597 597 0.4951740260984724
598 597 0.24759302584860868
597 598 0.2475930258486086
598 598 0.49656617467115555
599 598 0.24678976331663774
598 599 0.24678976331663782
599 599 0.49715582411240206
600 599 0.250587558534683
599 600 0.25058755853468306
600 600 0.5022417732161519
601 600 -0.24846517876500926
600 601 -0.24846517876500926
601 601 0.49904522768097564
602 601 -0.2480579876900823
601 602 -0.24805798769008222
602 602 0.5044921206473967
603 602 0.24615718921252802
602 603 0.24615718921252813
603 603 0.4961244844427259
604 603 0.24852557132879646
603 604 0.24852557132879674
604 604 0.5055462993622506
605 604 -0.24653211344867096
604 605 -0.246532113448671
605 605 0.4953319882387465
606 605 0.24454350744139267
605 606 0.24454350744139258
606 606 0.503698026119029
607 606 -0.25108599978899787
606 607 -0.25108599978899776
607 607 0.501151924000232
608 607 0.2470492659954344
607 608 0.24704926599543447
608 608 0.4953840719994291
609 608 -0.24532965307299734
608 609 -0.24532965307299742
609 609 0.5041896640778902
610 609 0.24722313935233176
609 610 0.24722313935233176
610 610 0.5018336889461374
611 610 0.24572298531613987
610 611 0.24572298531613987
611 611 0.49967762454517817
612 611 0.2480696186375057
611 612 0.24806961863750587
612 612 0.4965138169694351
613 612 0.24404671043073103
612 613 0.24404671043073123
613 613 0.501858279412775
614 613 0.2485559497223946
613 614 0.24855594972239475
614 614 0.5028640139368767
615 614 0.2469298204824906
614 615 0.24692982048249063
615 615 0.4994920559942362
616 615 -0.25000587791538037
615 616 -0.25000587791538015
616 616 0.4991170089926146
617 616 -0.24630487406551843
616 617 -0.2463048740655184
617 617 0.494637782178976
618 617 0.24594566883244046
617 618 0.2459456688324404
618 618 0.500548965695526
619 618 -0.247478286035522
618 619 -0.24747828603552186
619 619 0.5023180148238817
620 619 0.24700710243783533
619 620 0.24700710243783555
620 620 0.5008191502855971
621 620 -0.24199425939910874
620 621 -0.2419942593991087
621 621 0.4994114148623431
622 621 0.2537996414673798
621 622 0.25379964146737977
622 622 0.49897567262976367
623 622 -0.24524220200842212
622 623 -0.24524220200842212
623 623 0.5041290229126614
624 623 -0.24784235517321354
623 624 -0.24784235517321368
624 624 0.4985606461756297
625 624 -0.24623846846965505
624 625 -0.24623846846965497
625 625 0.502470220140446
626 625 -0.2493475494245382
625 626 -0.24934754942453835
626 626 0.5068042990749517
627 626 -0.2498549445854475
626 627 -0.24985494458544752
627 627 0.49270881384976173
628 627 0.24611102047820915
627 628 0.24611102047820918
628 628 0.4990325432080179
629 628 -0.24644681497491963
628 629 -0.24644681497491955
629 629 0.5029092163805758
630 629 -0.24585873274564155
629 630 -0.24585873274564152
630 630 0.4887994078586192
631 630 -0.24670733190137953
630 631 -0.24670733190137956
631 631 0.5028444575645072
632 631 0.24747080231100077
631 632 0.24747080231100077
632 632 0.5011823855426893
633 632 -0.24374759630151643
632 633 -0.24374759630151654
633 633 0.5023251814303684
634 633 0.2475947349698795
633 634 0.2475947349698796
634 634 0.49930929938533314
635 634 -0.250056175152785
634 635 -0.25005617515278505
635 635 0.5080499102818745
636 635 0.2441918072305568
635 636 0.24419180723055697
636 636 0.5027139503080843
637 636 0.2488699261770429
636 637 0.24886992617704287
637 637 0.5014155602328161
638 637 -0.24583548352097978
637 638 -0.24583548352097984
638 638 0.4984850400083312
639 638 -0.2464474129792068
638 639 -0.24644741297920683
639 639 0.49340601664699835
640 639 0.2478719076719446
639 640 0.24787190767194467
640 640 0.4961349903298025
641 640 0.24213063721955239
640 641 0.24213063721955227
641 641 0.5045647650778633
642 641 0.24804895660365647
641 642 0.24804895660365653
642 642 0.5052070569553055
643 642 -0.245921149177906
642 643 -0.24592114917790595
643 643 0.49609730088085824
644 643 0.2490894462237482
643 644 0.2490894462237481
644 644 0.5000174075753074
645 644 -0.24569222109134398
644 645 -0.24569222109134403
645 645 0.4946124474697814
646 645 -0.2431734090187703
645 646 -0.2431734090187703
646 646 0.5045535249809892
647 646 0.24792517004741985
646 647 0.2479251700474198
647 647 0.5008885689663375
648 647 0.24945596780258392
647 648 0.24945596780258372
648 648 0.5027787257975103
649 648 0.24641346981261356
648 649 0.24641346981261356
649 649 0.49916903695907133
650 649 -0.24608790393171673
649 650 -0.24608790393171667
650 650 0.505221822922347
651 650 -0.24428662884622998
650 651 -0.2442866288462299
651 651 0.49788257398213137
652 651 -0.2505702479571275
651 652 -0.2505702479571277
652 652 0.5040147916129243
653 652 0.2486148238836726
652 653 0.24861482388367262
653 653 0.5057905218297409
654 653 0.2477580437135492
653 654 0.2477580437135493
654 654 0.5002257400310878
655 654 -0.24742369481580598
654 655 -0.24742369481580617
655 655 0.491530720281982
656 655 -0.24718267984793335
655 656 -0.2471826798479333
656 656 0.5023470007698467
657 656 0.24527329514048493
656 657 0.24527329514048496
657 657 0.4906399980107032
658 657 0.24511762613711638
657 658 0.24511762613711643
658 658 0.4974372044153594
659 658 -0.24604877884042942
658 659 -0.2460487788404294
659 659 0.49913432903913646
660 659 -0.24240247481613722
659 660 -0.24240247481613728
660 660 0.4959980355761017
661 660 -0.24463871699271275
660 661 -0.24463871699271278
661 661 0.5059896728811888
662 661 0.2486157338947819
661 662 0.2486157338947817
662 662 0.49842834595771235
663 662 -0.24413973061661998
662 663 -0.2441397306166198
663 663 0.49851222193482714
664 663 0.24895290140184487
663 664 0.24895290140184484
664 664 0.5042357990535848
665 664 0.2480273301597162
664 665 0.24802733015971637
665 665 0.503048398086101
666 665 0.24799624685527888
665 666 0.24799624685527896
666 666 0.4937682851002281
667 666 -0.24708265920547778
666 667 -0.24708265920547795
667 667 0.5021041211562944
668 667 0.24311040164356867
667 668 0.24311040164356862
668 668 0.495005504908361
669 668 -0.24578720032579782
668 669 -0.24578720032579773
669 669 0.49632999607144335
670 669 0.24709041890021893
669 670 0.2470904189002189
670 670 0.5028376325781287
671 670 0.24397323527454282
670 671 0.2439732352745429
671 671 0.5035097375655209
672 671 0.24820061216819747
671 672 0.24820061216819753
672 672 0.5015285711877353
673 672 0.24558137673986077
672 673 0.2455813767398608
673 673 0.5008788015541322
674 673 -0.24833039362660364
673 674 -0.24833039362660367
674 674 0.49522353351404735
675 674 0.247884086010979
674 675 0.24788408601097905
675 675 0.5019072789987554
676 675 -0.24509124620814535
675 676 -0.2450912462081455
676 676 0.5021095063657962
677 676 -0.2473664751345198
676 677 -0.2473664751345198
677 677 0.5042238381929989
678 677 -0.244224525764531
677 678 -0.24422452576453096
678 678 0.5035803804872023
679 678 0.24926094947126334
678 679 0.2492609494712631
679 679 0.4904169622014287
680 679 -0.24434715020507516
679 680 -0.24434715020507494
680 680 0.5098190286154725
681 680 0.24426806736832626
680 681 0.24426806736832632
681 681 0.5030119950708578
682 681 0.24604602388936078
681 682 0.24604602388936084
682 682 0.4935731942449621
683 682 0.24888722116130457
682 683 0.24888722116130446
683 683 0.5012919144503332
684 683 0.24416653914145892
683 684 0.24416653914145878
684 684 0.4992149010631932
685 684 0.24564546911874674
684 685 0.2456454691187468
685 685 0.49655933202942487
686 685 0.24433939458008916
685 686 0.244339394580089
686 686 0.5084748472796959
687 686 -0.24808023445563426
686 687 -0.24808023445563432
687 687 0.49833142686524107
688 687 -0.24766607660215167
687 688 -0.24766607660215165
688 688 0.5033021856383877
689 688 -0.24745804785610434
688 689 -0.24745804785610426
689 689 0.4914174807056509
690 689 0.24648788572408836
689 690 0.24648788572408836
690 690 0.5086495861914667
691 690 -0.2455071551691359
690 691 -0.24550715516913596
691 691 0.502999563216961
692 691 -0.2470070061789741
691 692 -0.24700700617897411
692 692 0.494142873317468
693 692 0.24908246789652125
692 693 0.24908246789652128
693 693 0.4996766880219407
694 693 0.24317248176897044
693 694 0.2431724817689706
694 694 0.5036685536062899
695 694 0.24639275200407487
694 695 0.24639275200407507
695 695 0.5060280491589442
696 695 -0.24649608508702142
695 696 -0.24649608508702156
696 696 0.49561000399525496
697 696 0.24499781094691106
696 697 0.24499781094691106
697 697 0.503221497535846
698 697 0.25009917602330883
697 698 0.25009917602330894
698 698 0.5014727850300318
699 698 -0.24380869515379602
698 699 -0.2438086951537962
699 699 0.4973831097702766
700 699 -0.24484946534176175
699 700 -0.24484946534176183
700 700 0.5012641494475645
701 700 0.2402474313753634
700 701 0.24024743137536336
701 701 0.4950857153650692
702 701 -0.2452635416033682
701 702 -0.24526354160336808
702 702 0.5027473650778737
703 702 0.24751338483146823
702 703 0.24751338483146829
703 703 0.5011550533405533
704 703 -0.2431596246806603
703 704 -0.24315962468066005
704 704 0.5016464313575767
705 704 -0.24872640621441414
704 705 -0.24872640621441416
705 705 0.501715161882546
706 705 -0.2480846841265516
705 706 -0.24808468412655157
706 706 0.5053191125691582
707 706 0.24804677259903235
706 707 0.2480467725990324
707 707 0.49730740677220675
708 707 0.24597125041595108
707 708 0.24597125041595103
708 708 0.499432952479135
709 708 -0.24074986961382608
708 709 -0.24074986961382613
709 709 0.49067642295810393
710 709 -0.2466151552835286
709 710 -0.24661515528352862
710 710 0.504344989401635
711 710 0.24200561204420018
710 711 0.24200561204420018
711 711 0.5002197206353329
712 711 -0.24438009427956078
711 712 -0.24438009427956062
712 712 0.49419602297871745
713 712 0.24500528790614692
712 713 0.245005287906147
713 713 0.5057634250265538
714 713 -0.24858070909862343
713 714 -0.2485807090986234
714 714 0.5084145677774965
715 714 -0.24781183107863858
714 715 -0.24781183107863833
715 715 0.4942590816255093
716 715 -0.2428592222934575
715 716 -0.24285922229345747
716 716 0.49240780863570366
717 716 -0.24724935855433244
716 717 -0.24724935855433225
717 717 0.503400712681468
718 717 0.24633072705778233
717 718 0.24633072705778236
718 718 0.5051019045234671
719 718 0.24529753579967686
718 719 0.245297535799677
719 719 0.49503761780093275
720 719 -0.2492680593177712
719 720 -0.24926805931777113
720 720 0.5004523766749203
721 720 -0.24005012234120063
720 721 -0.24005012234120066
721 721 0.5050470335870988
722 721 -0.24639368629868103
721 722 -0.24639368629868116
722 722 0.4948968957545096
723 722 -0.24810281153939726
722 723 -0.24810281153939742
723 723 0.49295258579209206
724 723 0.2427981365893675
723 724 0.24279813658936736
724 724 0.5003887417902542
725 724 -0.24596246119237306
724 725 -0.24596246119237314
725 725 0.508844288538354
726 725 -0.24535900863759644
725 726 -0.24535900863759647
726 726 0.49974577465907455
727 726 -0.2473583087253982
726 727 -0.24735830872539802
727 727 0.4973982184352379
728 727 0.24499370156985292
727 728 0.24499370156985273
728 728 0.5009128797159397
729 728 0.24679108624144053
728 729 0.24679108624144047
729 729 0.49699043876252147
730 729 0.2479475642298569
729 730 0.24794756422985695
730 730 0.5062854126680855
731 730 0.24493044093645275
730 731 0.24493044093645291
731 731 0.49045888809895993
732 731 -0.24391777093849712
731 732 -0.24391777093849717
732 732 0.4999163313214545
733 732 0.2455993677487506
732 733 0.2455993677487506
733 733 0.4905041232678516
734 733 0.2468076549736733
733 734 0.24680765497367335
734 734 0.4976783017138473
735 734 0.24431917868128641
734 735 0.24431917868128647
735 735 0.49835751412929535
736 735 0.2442836242600217
735 736 0.24428362426002187
736 736 0.5087847211762946
737 736 0.24807910559357327
736 737 0.24807910559357335
737 737 0.49353093672356946
738 737 0.24711055537525659
737 738 0.24711055537525647
738 738 0.4931313063511146
739 738 0.24496505518015735
738 739 0.24496505518015738
739 739 0.5049057269286733
740 739 -0.24527066188956242
739 740 -0.24527066188956237
740 740 0.49575833290805527
741 740 0.24249349915305166
740 741 0.24249349915305174
741 741 0.4954123785663828
742 741 -0.24759483132748333
741 742 -0.2475948313274835
742 742 0.5090294870822514
743 742 -0.2451218161239564
742 743 -0.24512181612395634
743 743 0.48476776080186357
744 743 -0.24546566263488667
743 744 -0.24546566263488667
744 744 0.5014483477752516
745 744 0.24605628652324604
744 745 0.24605628652324596
745 745 0.5032383690199218
746 745 0.24165460549482395
745 746 0.24165460549482393
746 746 0.4905253058790751
747 746 -0.24647285311024544
746 747 -0.24647285311024542
747 747 0.5073446582216494
748 747 -0.24475725303823886
747 748 -0.24475725303823898
748 748 0.502684238548707
749 748 0.24487829715382795
748 749 0.24487829715382792
749 749 0.5000104381666766
750 749 -0.24991690522239204
749 750 -0.24991690522239215
750 750 0.49856859503863893
751 750 0.24471399634700644
750 751 0.24471399634700663
751 751 0.49364435288899505
752 751 0.24775561085207867
751 752 0.2477556108520787
752 752 0.5055228732382875
753 752 0.2435759306228399
752 753 0.24357593062283983
753 753 0.4959271236049143
754 753 0.24707233627265096
753 754 0.24707233627265107
754 754 0.5079507961551156
755 754 -0.24842346159518242
754 755 -0.24842346159518242
755 755 0.4954075102047667
756 755 0.24253672250823347
755 756 0.2425367225082337
756 756 0.5019260543763404
757 756 0.2478302900879355
756 757 0.24783029008793545
757 757 0.5010419085237534
758 757 -0.25036161172307764
757 758 -0.2503616117230777
758 758 0.4982102001820512
759 758 -0.24394516981583803
758 759 -0.243945169815838
759 759 0.5005293327980773
760 759 -0.24439483000809803
759 760 -0.24439483000809797
760 760 0.5067664766852511
761 760 0.24633960449897363
760 761 0.24633960449897374
761 761 0.4946968390708063
762 761 -0.24405192674379403
761 762 -0.24405192674379403
762 762 0.4912257050906059
763 762 0.24367228915883507
762 763 0.243672289158835
763 763 0.5037660958338325
764 763 -0.2475059339984872
763 764 -0.24750593399848736
764 764 0.5006434816564528
765 764 0.24227898607279852
764 765 0.24227898607279852
765 765 0.5003266877315946
766 765 -0.24759349582554174
765 766 -0.24759349582554174
766 766 0.5038993283350421
767 766 -0.2435894776238851
766 767 -0.24358947762388516
767 767 0.49636959879810444
768 767 -0.2487859527009149
767 768 -0.2487859527009148
768 768 0.5007904294408183
769 768 -0.24606771854019716
768 769 -0.2460677185401973
769 769 0.5036288988637595
770 769 -0.24928498031369278
769 770 -0.24928498031369292
770 770 0.5051694200843968
771 770 0.24225726724207464
770 771 0.24225726724207455
771 771 0.49636416235829506
772 771 0.24383687094745082
771 772 0.24383687094745107
772 772 0.5083930142476545
773 772 -0.24677155876016843
772 773 -0.24677155876016832
773 773 0.4982327955472441
774 773 0.25000922264342496
773 774 0.25000922264342484
774 774 0.5014686102651156
775 774 -0.2447740329574676
774 775 -0.24477403295746764
775 775 0.4986906380607625
776 775 -0.24590132406151624
775 776 -0.24590132406151594
776 776 0.49788079000895613
777 776 0.24480316495127652
776 777 0.2448031649512764
777 777 0.49729435883338685
778 777 0.24400453130194336
777 778 0.24400453130194344
778 778 0.4991160286821946
779 778 -0.24544796009726616
778 779 -0.24544796009726616
779 779 0.5079767400878316
780 779 -0.24545009138503304
779 780 -0.24545009138503324
780 780 0.49083399945584755
781 780 0.24784433258317545
780 781 0.24784433258317534
781 781 0.5040623031053375
782 781 -0.2454273141287092
781 782 -0.24542731412870916
782 782 0.5075460338492608
783 782 0.246288412381811
782 783 0.24628841238181118
783 783 0.5013926763365656
784 783 -0.24476689452442596
783 784 -0.244766894524426
784 784 0.49422534361690523
785 784 -0.24592547241173868
784 785 -0.24592547241173865
785 785 0.49251966747725767
786 785 0.24076496258622918
785 786 0.24076496258622915
786 786 0.5095579055164821
787 786 0.24268243812506415
786 787 0.24268243812506426
787 787 0.5012366889896357
788 787 0.25029453551301184
787 788 0.2502945355130117
788 788 0.4931424790377848
789 788 0.2445270356816578
788 789 0.2445270356816578
789 789 0.4994493819409659
790 789 0.24586515662352443
789 790 0.24586515662352443
790 790 0.5032937534164613
791 790 0.24390343099293618
790 791 0.24390343099293632
791 791 0.5059339264769378
792 791 -0.2415704647731016
791 792 -0.24157046477310148
792 792 0.49994180237855107
793 792 0.24733946188768857
792 793 0.24733946188768863
793 793 0.5004676395008021
794 793 -0.24891241392705957
793 794 -0.24891241392705946
794 794 0.49947786165008795
795 794 0.24561426043214993
794 795 0.24561426043214976
795 795 0.49792398346364986
796 795 0.2463592490186765
795 796 0.24635924901867656
796 796 0.49083278792863877
797 796 -0.24846513732720682
796 797 -0.2484651373272068
797 797 0.5043275382353208
798 797 -0.24273165281426753
797 798 -0.24273165281426753
798 798 0.5001813605323853
799 798 0.24478830944355517
798 799 0.24478830944355504
799 799 0.4992263745583666
800 799 -0.2428026756167748
799 800 -0.24280267561677474
800 800 0.4913554132135286
801 800 0.24698862333039834
800 801 0.24698862333039823
801 801 0.5059435400267434
802 801 0.24449327199578974
801 802 0.24449327199578963
802 802 0.5007381741851794
803 802 -0.246344673444808
802 803 -0.24634467344480812
803 803 0.5020426515609385
804 803 0.24481544918390424
803 804 0.24481544918390433
804 804 0.49539522665420954
805 804 -0.248628643613652
804 805 -0.24862864361365206
805 805 0.5057551832004253
806 805 0.2449576060536048
805 806 0.2449576060536049
806 806 0.4931306516703351
807 806 0.24206213659776943
806 807 0.24206213659776937
807 807 0.49885454000937035
808 807 -0.2454438839569517
807 808 -0.24544388395695174
808 808 0.4958316554913583
809 808 -0.2477556282940463
808 809 -0.2477556282940465
809 809 0.5044268713595231
810 809 -0.2443632808410017
809 810 -0.24436328084100165
810 810 0.4990741670149312
811 810 0.24528185249885856
810 811 0.24528185249885875
811 811 0.5020341981429454
812 811 0.2447219764818625
811 812 0.24472197648186256
812 812 0.494164570081798
813 812 -0.2442603002796895
812 813 -0.24426030027968956
813 813 0.5048082693437688
814 813 -0.24499685100915744
813 814 -0.2449968510091576
814 814 0.5021111517317324
815 814 -0.24521306659529774
814 815 -0.24521306659529776
815 815 0.5008105562710509
816 815 0.24542554669348549
815 816 0.24542554669348537
816 816 0.48823179316395543
817 816 0.24644665278148842
816 817 0.24644665278148842
817 817 0.5102421603289418
818 817 0.2446568800645972
817 818 0.24465688006459715
818 818 0.5080318363412591
819 818 0.2449416414899224
818 819 0.24494164148992234
819 819 0.499307451499001
820 819 -0.24246872091391744
819 820 -0.2424687209139173
820 820 0.4983741750860685
821 820 0.24238499108346015
820 821 0.24238499108346015
821 821 0.49767894491170517
822 821 0.24564742412509125
821 822 0.2456474241250913
822 822 0.4971540150992691
823 822 -0.24385012269381526
822 823 -0.24385012269381526
823 823 0.5045482275313511
824 823 0.2469659854954298
823 824 0.24696598549542986
824 824 0.4985084091936876
825 824 0.24338811598324261
824 825 0.2433881159832427
825 825 0.49707100435530793
826 825 -0.24447866005665828
825 826 -0.24447866005665836
826 826 0.49801063208496416
827 826 -0.24254629850638407
826 827 -0.24254629850638423
827 827 0.5046084908086392
828 827 0.24724688544606593
827 828 0.24724688544606585
828 828 0.4985785496462852
829 828 0.24309499728519182
828 829 0.2430949972851918
829 829 0.4972208523875087
830 829 -0.24349218834899947
829 830 -0.2434921883489993
830 830 0.505786333280106
831 830 0.2426465406335008
830 831 0.24264654063350063
831 831 0.49747931453090266
832 831 -0.24646128128505687
831 832 -0.2464612812850567
832 832 0.4975556724483182
833 832 0.24632943262971163
832 833 0.24632943262971171
833 833 0.5032701541217419
834 833 -0.24533978435241988
833 834 -0.24533978435241996
834 834 0.500943470805647
835 834 -0.2461930062573447
834 835 -0.24619300625734475
835 835 0.4991072702604418
836 835 0.24536385498387533
835 836 0.24536385498387525
836 836 0.4973701782636155
837 836 0.2426333452549669
836 837 0.24263334525496694
837 837 0.49969643930387125
838 837 0.24582503084987264
837 838 0.24582503084987276
838 838 0.5035354382515621
839 838 0.2422599324372093
838 839 0.2422599324372095
839 839 0.501710302001092
840 839 0.24560426540416308
839 840 0.24560426540416289
840 840 0.4902435900849519
841 840 0.24196627657016115
840 841 0.24196627657016107
841 841 0.5072714538131194
842 841 0.24418028586378324
841 842 0.2441802858637833
842 842 0.49629695878765956
843 842 -0.24426835514302603
842 843 -0.24426835514302586
843 843 0.49753392349451586
844 843 0.24324882779596313
843 844 0.24324882779596316
844 844 0.5077158584383816
845 844 -0.24392431833090816
844 845 -0.24392431833090814
845 845 0.5005524168825654
846 845 -0.24351607364764832
845 846 -0.2435160736476482
846 846 0.49529947232024807
847 846 0.24772296833365953
846 847 0.24772296833365962
847 847 0.4992629172044981
848 847 -0.24480858652247936
847 848 -0.24480858652247944
848 848 0.4995240201510945
849 848 0.24347406190654292
848 849 0.24347406190654286
849 849 0.4975831885402925
850 849 0.24614452042068746
849 850 0.2461445204206873
850 850 0.5000897702527649
851 850 -0.2403884303858997
850 851 -0.24038843038589947
851 851 0.5028944636471477
852 851 -0.24813546818123952
851 852 -0.24813546818123927
852 852 0.49723314468686225
853 852 -0.24310219613226708
852 853 -0.24310219613226725
853 853 0.49491648338128275
854 853 -0.2444355473935235
853 854 -0.24443554739352338
854 854 0.5044510460219674
855 854 -0.2436821564675241
854 855 -0.24368215646752422
855 855 0.5009164227873719
856 855 0.2443881405795226
855 856 0.24438814057952282
856 856 0.4983702802434878
857 856 -0.24450338228077298
856 857 -0.24450338228077298
857 857 0.49515949124236414
858 857 -0.24482044611037654
857 858 -0.24482044611037654
858 858 0.5067463196895015
859 858 -0.24653525740254212
858 859 -0.24653525740254195
859 859 0.49927322486071196
860 859 -0.24475233437558863
859 860 -0.2447523343755885
860 860 0.4986954641402524
861 860 0.23855114377005662
860 861 0.23855114377005662
861 861 0.49913372511883897
862 861 -0.24443575528503228
861 862 -0.2444357552850324
862 862 0.4984833508876786
863 862 -0.24475247363480762
862 863 -0.24475247363480773
863 863 0.5005650343964987
864 863 0.2405195723235703
863 864 0.24051957232357024
864 864 0.49749764262731117
865 864 0.24374133891896502
864 865 0.2437413389189651
865 865 0.503393265643113
866 865 -0.24427168055439188
865 866 -0.24427168055439183
866 866 0.4940979639036672
867 866 0.24254165869645056
866 867 0.24254165869645047
867 867 0.5045936983943871
868 867 -0.24811554289098608
867 868 -0.24811554289098606
868 868 0.5004934584668834
869 868 0.2415650983979289
868 869 0.2415650983979289
869 869 0.5010250977784301
870 869 0.24625683082339223
869 870 0.24625683082339211
870 870 0.4946819869826379
871 870 0.24367377376218713
870 871 0.2436737737621871
871 871 0.5039078873426882
872 871 0.2448392622924964
871 872 0.2448392622924965
872 872 0.49124498310832493
873 872 -0.24496261684377485
872 873 -0.24496261684377474
873 873 0.5111948847249195
874 873 0.2398512414283635
873 874 0.23985124142836348
874 874 0.5002448491053221
875 874 0.24009921838683254
874 875 0.24009921838683232
875 875 0.495846693489696
876 875 -0.24341282331765363
875 876 -0.24341282331765376
876 876 0.49951253390197037
877 876 -0.2452572029925303
876 877 -0.24525720299253018
877 877 0.504993948071523
878 877 -0.24377136529649818
877 878 -0.24377136529649826
878 878 0.4969560231468771
879 878 0.24377075157972788
878 879 0.24377075157972786
879 879 0.49894495000676947
880 879 0.24582868277545358
879 880 0.24582868277545347
880 880 0.5039905614212261
881 880 0.24872885756414295
880 881 0.24872885756414295
881 881 0.502467105806753
882 881 0.23997896159813648
881 882 0.23997896159813645
882 882 0.49070581604189756
883 882 0.2429754870509871
882 883 0.24297548705098693
883 883 0.5049308544956137
884 883 0.24612699341507963
883 884 0.2461269934150797
884 884 0.5032914769374232
885 884 -0.24878669436861325
884 885 -0.2487866943686133
885 885 0.4990448332144671
886 885 -0.23928846709189078
885 886 -0.23928846709189072
886 886 0.5036042331470514
887 886 0.24414466086100645
886 887 0.24414466086100656
887 887 0.5025295436752326
888 887 0.24867006372033237
887 888 0.2486700637203323
888 888 0.5056993432174944
889 888 0.24223323958965234
888 889 0.24223323958965226
889 889 0.4998527140808726
890 889 0.24545190129428374
889 890 0.24545190129428385
890 890 0.4976915706344742
891 890 -0.23987583870330734
890 891 -0.23987583870330723
891 891 0.5048767719905198
892 891 0.24482386543320342
891 892 0.24482386543320359
892 892 0.502240158345409
893 892 0.24124084776547366
892 893 0.24124084776547366
893 893 0.502407734999762
894 893 -0.24361002436170245
893 894 -0.2436100243617026
894 894 0.49325023938200135
895 894 0.24623664238726983
894 895 0.24623664238726994
895 895 0.5017234556836351
896 895 0.24223660942070754
895 896 0.24223660942070765
896 896 0.500265915194426
897 896 0.24324312627417857
896 897 0.24324312627417854
897 897 0.49827141955806364
898 897 0.24389805159090636
897 898 0.2438980515909063
898 898 0.5058060412721999
899 898 -0.2429203687074912
898 899 -0.24292036870749148
899 899 0.4970373623502134
900 899 -0.24713245477365026
899 900 -0.24713245477365023
900 900 0.49967800951684505
901 900 0.24207386157225907
900 901 0.24207386157225894
901 901 0.5082304077090245
902 901 -0.2489610474434532
901 902 -0.24896104744345318
902 902 0.49116851809958006
903 902 0.24055393507822964
902 903 0.24055393507822967
903 903 0.5020051871418463
904 903 0.24634160581935344
903 904 0.24634160581935352
904 904 0.49477395455096623
905 904 -0.2394467436513377
904 905 -0.23944674365133767
905 905 0.505554212518367
906 905 0.247361606882535
905 906 0.24736160688253497
906 906 0.49928316902771436
907 906 -0.23953848314327247
906 907 -0.23953848314327256
907 907 0.5004479897841031
908 907 -0.24294653172974895
907 908 -0.24294653172974906
908 908 0.49560735640916737
909 908 -0.23931087052188518
908 909 -0.23931087052188516
909 909 0.4957801304617628
910 909 -0.24417182800363285
909 910 -0.2441718280036329
910 910 0.4890288916831773
911 910 -0.24454961729912858
910 911 -0.24454961729912852
911 911 0.5088605166112933
912 911 -0.24348630278543792
911 912 -0.2434863027854379
912 912 0.49727827236266253
913 912 0.24309695152962305
912 913 0.24309695152962296
913 913 0.4935347791183692
914 913 0.24500030767815692
913 914 0.24500030767815684
914 914 0.5083038948726655
915 914 -0.24373056721925948
914 915 -0.24373056721925934
915 915 0.5041170447032444
916 915 0.2424744802811235
915 916 0.24247448028112367
916 916 0.4976930259739441
917 916 -0.2423244299826287
916 917 -0.2423244299826289
917 917 0.4965624329475058
918 917 -0.24292351989150907
917 918 -0.24292351989150907
918 918 0.5063296763914713
919 918 0.24240276153442297
918 919 0.24240276153442292
919 919 0.5010875739745158
920 919 0.2426739191867047
919 920 0.2426739191867048
920 920 0.48980560186879607
921 920 0.2400658847740263
920 921 0.24006588477402638
921 921 0.49630716744574416
922 921 0.2460487284488492
921 922 0.2460487284488491
922 922 0.5050445159926912
923 922 0.24641071308376566
922 923 0.2464107130837656
923 923 0.49689874407019713
924 923 -0.24321573176503739
923 924 -0.24321573176503736
924 924 0.5001046169634563
925 924 0.2380642709643692
924 925 0.23806427096436925
925 925 0.5157729109986764
926 925 -0.24528118544656927
925 926 -0.24528118544656927
926 926 0.4905377995795456
927 926 0.24532734177908178
926 927 0.24532734177908166
927 927 0.5008821800829555
928 927 -0.24244912553420336
927 928 -0.24244912553420328
928 928 0.49387419721724374
929 928 0.24238357536947402
928 929 0.24238357536947408
929 929 0.4999069900584653
930 929 -0.24271559388181604
929 930 -0.24271559388181607
930 930 0.5001016281443518
931 930 0.2432327333172335
930 931 0.24323273331723344
931 931 0.49820004565425413
932 931 0.23812715224288014
931 932 0.23812715224288
932 932 0.5036980987305578
933 932 0.24562580699725023
932 933 0.24562580699725015
933 933 0.49789929597133875
934 933 0.2449116978805746
933 934 0.2449116978805747
934 934 0.49347239180542374
935 934 0.24367963333262896
934 935 0.24367963333262896
935 935 0.5023965332678431
936 935 0.2451700989753267
935 936 0.24517009897532674
936 936 0.5078525745907625
937 936 0.2417223915874927
936 937 0.24172239158749265
937 937 0.49959806577043475
938 937 -0.24405369801025947
937 938 -0.24405369801025945
938 938 0.49583720540237214
939 938 0.24462521503419873
938 939 0.24462521503419887
939 939 0.49823700500394186
940 939 -0.2391791428530723
939 940 -0.23917914285307226
940 940 0.49926748871296445
941 940 -0.24898313158801647
940 941 -0.2489831315880166
941 941 0.5027876199268689
942 941 -0.24590937586355321
941 942 -0.2459093758635532
942 942 0.5005754710285216
943 942 0.24434530722941955
942 943 0.24434530722941947
943 943 0.4959528104965441
944 943 0.24202816447340306
943 944 0.24202816447340303
944 944 0.5026162347446919
945 944 0.24064240178493354
944 945 0.2406424017849334
945 945 0.49867458347579685
946 945 0.24430920313896687
945 946 0.24430920313896695
946 946 0.5061451727735853
947 946 0.2410584987789555
946 947 0.24105849877895552
947 947 0.491097618964898
948 947 -0.23901385557126917
947 948 -0.23901385557126914
948 948 0.5038980314360333
949 948 -0.24216264110507718
948 949 -0.24216264110507724
949 949 0.49780734608386246
950 949 -0.24379092596980606
949 950 -0.24379092596980603
950 950 0.5045139377265053
951 950 0.24452134865750566
950 951 0.24452134865750558
951 951 0.5043885429599284
952 951 0.23869914322627356
951 952 0.2386991432262735
952 952 0.4894724171180931
953 952 0.24849197436190323
952 953 0.24849197436190323
953 953 0.5012644345260361
954 953 0.24589539938582927
953 954 0.24589539938582933
954 954 0.5038696328938155
955 954 0.23979068212635216
954 955 0.2397906821263521
955 955 0.495185145223038
956 955 -0.23888476897206481
955 956 -0.23888476897206484
956 956 0.5035851568433545
957 956 0.2431118831102387
956 957 0.24311188311023882
957 957 0.49917806910785506
958 957 -0.24670701531621292
957 958 -0.24670701531621286
958 958 0.4969031522666163
959 958 0.24363658621517298
958 959 0.24363658621517287
959 959 0.5084776398719855
960 959 -0.2431035583717936
959 960 -0.2431035583717935
960 960 0.5067431027905429
961 960 0.2453229603407544
960 961 0.2453229603407544
961 961 0.4921686069338309
962 961 0.2434697371594499
961 962 0.24346973715944992
962 962 0.49946879734310734
963 962 -0.2449887353097389
962 963 -0.24498873530973894
963 963 0.5014199361341904
964 963 -0.24372190271860977
963 964 -0.24372190271860986
964 964 0.49915805895077603
965 964 -0.24225980265796113
964 965 -0.24225980265796118
965 965 0.5001658194244816
966 965 0.24451011610055515
965 966 0.2445101161005554
966 966 0.4978650709805913
967 966 0.24572233612072045
966 967 0.24572233612072045
967 967 0.5054004134329174
968 967 -0.24136748163698632
967 968 -0.24136748163698613
968 968 0.49953513487794676
969 968 0.24103651940140056
968 969 0.24103651940140067
969 969 0.5042000864438714
970 969 -0.23927382831586777
969 970 -0.23927382831586763
970 970 0.49846581364870873
971 970 0.23825894590185281
970 971 0.23825894590185293
971 971 0.5003911771480609
972 971 0.2431675949924535
971 972 0.24316759499245366
972 972 0.5030142419980446
973 972 0.24061083916310846
972 973 0.24061083916310852
973 973 0.5009817364268337
974 973 0.24186110803316738
973 974 0.24186110803316735
974 974 0.504425257834062
975 974 0.24002186162575967
974 975 0.24002186162575967
975 975 0.4954612351275452
976 975 0.24461136677711084
975 976 0.24461136677711084
976 976 0.5055574094571627
977 976 0.2383909464584209
976 977 0.23839094645842085
977 977 0.4942894071940128
978 977 -0.24664371879000951
977 978 -0.24664371879000951
978 978 0.5062707983927304
979 978 0.24388031025363946
978 979 0.2438803102536394
979 979 0.5004732009903654
980 979 0.24160330810260822
979 980 0.24160330810260827
980 980 0.49016359272618243
981 980 0.23958578360090058
980 981 0.23958578360090058
981 981 0.50436265547344
982 981 -0.24475775878381115
981 982 -0.24475775878381112
982 982 0.4889586471251872
983 982 -0.24346436217005907
982 983 -0.24346436217005915
983 983 0.5062703584584873
984 983 0.24694488810004397
983 984 0.24694488810004378
984 984 0.49731945561049934
985 984 -0.23945800522661959
984 985 -0.23945800522661964
985 985 0.5018091346524086
986 985 0.2431090952959827
985 986 0.24310909529598265
986 986 0.498876634339596
987 986 0.23834263284803117
986 987 0.23834263284803112
987 987 0.5036165118722817
988 987 -0.2441689180192502
987 988 -0.24416891801925025
988 988 0.49978006074704634
989 988 0.24145978054803754
988 989 0.24145978054803757
989 989 0.5053887027197881
990 989 0.24369922151963816
989 990 0.2436992215196382
990 990 0.4994272583270615
991 990 -0.24144384184560283
990 991 -0.24144384184560272
991 991 0.5013481312515556
992 991 -0.24012349903237767
991 992 -0.24012349903237773
992 992 0.4898942392965388
993 992 -0.2417244453000607
992 993 -0.2417244453000607
993 993 0.49915321783813316
994 993 0.2393361824613504
993 994 0.23933618246135038
994 994 0.49896780984310274
995 994 -0.2441370844092507
994 995 -0.24413708440925067
995 995 0.5016190550425046
996 995 -0.2407209663215334
995 996 -0.2407209663215336
996 996 0.4936440873549633
997 996 0.24267873496644138
996 997 0.2426787349664414
997 997 0.5037533958397167
998 997 -0.24135184592925982
997 998 -0.2413518459292598
998 998 0.4991721220880915
999 998 0.23924486956588448
998 999 0.23924486956588442
999 999 0.49939303119829476
1000 999 -0.24088634151137467
999 1000 -0.24088634151137464
1000 1000 0.5010953465429937
1001 1000 0.2459415731141314
1000 1001 0.24594157311413137
1001 1001 0.49875320430069126
1002 1001 -0.24100066435059625
1001 1002 -0.24100066435059625
1002 1002 0.4966160243415695
1003 1002 -0.243574365548118
1002 1003 -0.2435743655481182
1003 1003 0.5095079494191671
1004 1003 -0.2398402100018338
1003 1004 -0.23984021000183406
1004 1004 0.4952967098809148
1005 1004 -0.24042922468048125
1004 1005 -0.2404292246804814
1005 1005 0.5034849981860408
1006 1005 0.24134365463047666
1005 1006 0.24134365463047672
1006 1006 0.5062675408189408
1007 1006 0.24048503738205224
1006 1007 0.24048503738205215
1007 1007 0.49245251360671277
1008 1007 0.24366457996416277
1007 1008 0.24366457996416277
1008 1008 0.4945328287759441
1009 1008 0.24624169914504013
1008 1009 0.24624169914504004
1009 1009 0.4974465528195008
1010 1009 -0.2361886341819253
1009 1010 -0.23618863418192523
1010 1010 0.49476587471124933
1011 1010 -0.24486681914353556
1010 1011 -0.24486681914353547
1011 1011 0.4971163035227907
1012 1011 -0.2403125306753833
1011 1012 -0.24031253067538338
1012 1012 0.5040793456850539
1013 1012 -0.24492400802259565
1012 1013 -0.24492400802259562
1013 1013 0.5018900869505387
1014 1013 -0.24056072687954397
1013 1014 -0.24056072687954388
1014 1014 0.5034327345426509
1015 1014 -0.2433875084814459
1014 1015 -0.24338750848144583
1015 1015 0.5036763319750358
1016 1015 -0.24158956104558257
1015 1016 -0.2415895610455827
1016 1016 0.49790856380739446
1017 1016 -0.24100886551324086
1016 1017 -0.24100886551324083
1017 1017 0.503544979052734
1018 1017 0.24221686986814014
1017 1018 0.2422168698681403
1018 1018 0.5010477937840618
1019 1018 0.24233922220236181
1018 1019 0.24233922220236176
1019 1019 0.5052056356213915
1020 1019 -0.24261792653132416
1019 1020 -0.2426179265313242
1020 1020 0.50510598365064
1021 1020 0.24313212214127206
1020 1021 0.2431321221412721
1021 1021 0.4952121429183816
1022 1021 0.244133463356386
1021 1022 0.24413346335638603
1022 1022 0.4977647226773491
1023 1022 0.24166509827203675
1022 1023 0.24166509827203658
1023 1023 0.5064142710942108
1024 1023 0.24142790995489644
1023 1024 0.24142790995489644
1024 1024 0.5037751455649425
1025 1024 -0.23922575039297958
1024 1025 -0.23922575039297966
1025 1025 0.5029767667211694
1026 1025 0.24750368835996453
1025 1026 0.24750368835996464
1026 1026 0.4941503840121475
1027 1026 -0.23916943390094775
1026 1027 -0.23916943390094766
1027 1027 0.4992146822605231
1028 1027 -0.24088816841479185
1027 1028 -0.2408881684147919
1028 1028 0.4962780187690469
1029 1028 0.23879018040547742
1028 1029 0.23879018040547742
1029 1029 0.49845245256152065
1030 1029 0.23972282102413833
1029 1030 0.23972282102413844
1030 1030 0.4980997112857002
1031 1030 -0.24343495808342924
1030 1031 -0.24343495808342938
1031 1031 0.5057286996795252
1032 1031 0.24055521732357826
1031 1032 0.2405552173235781
1032 1032 0.5037817863116065
1033 1032 0.24099585810665025
1032 1033 0.2409958581066502
1033 1033 0.5010804947228902
1034 1033 -0.24113974232690186
1033 1034 -0.241139742326902
1034 1034 0.49719943375307263
1035 1034 0.24393640082050472
1034 1035 0.2439364008205047
1035 1035 0.49712361634617647
1036 1035 0.23845520597371925
1035 1036 0.2384552059737193
1036 1036 0.49705923220818526
1037 1036 -0.24321958914752823
1036 1037 -0.24321958914752823
1037 1037 0.5040821440823878
1038 1037 0.24190275315353893
1037 1038 0.24190275315353899
1038 1038 0.5019353956320791
1039 1038 -0.24085238109276416
1038 1039 -0.2408523810927642
1039 1039 0.4959134296793066
1040 1039 -0.24308607287809061
1039 1040 -0.24308607287809034
1040 1040 0.5003101130665797
1041 1040 0.24194669073437836
1040 1041 0.24194669073437833
1041 1041 0.5019114309176986
1042 1041 0.2418522324342473
1041 1042 0.24185223243424747
1042 1042 0.49335641557425386
1043 1042 0.2417397095714432
1042 1043 0.24173970957144292
1043 1043 0.5030166225079898
1044 1043 0.2419665890953982
1043 1044 0.24196658909539828
1044 1044 0.4999173695686537
1045 1044 0.2362226148855187
1044 1045 0.23622261488551868
1045 1045 0.4964599101317733
1046 1045 0.24283278161056168
1045 1046 0.2428327816105616
1046 1046 0.4967373463357493
1047 1046 0.2413355936926115
1046 1047 0.24133559369261173
1047 1047 0.5004276903712246
1048 1047 -0.24203422492177717
1047 1048 -0.24203422492177715
1048 1048 0.4953877244937396
1049 1048 0.2389124178428734
1048 1049 0.2389124178428736
1049 1049 0.5034159382503332
1050 1049 0.2418396396008094
1049 1050 0.24183963960080943
1050 1050 0.49534589229079773
1051 1050 0.24168303284954795
1050 1051 0.24168303284954767
1051 1051 0.5026775504071965
1052 1051 0.23958027394064765
1051 1052 0.2395802739406476
1052 1052 0.5017418894966676
1053 1052 0.23895901099026395
1052 1053 0.23895901099026381
1053 1053 0.4994731964970624
1054 1053 -0.24062393041008623
1053 1054 -0.24062393041008634
1054 1054 0.5009647196611529
1055 1054 0.24194249284004096
1054 1055 0.2419424928400409
1055 1055 0.50037541231103
1056 1055 -0.23924259434451073
1055 1056 -0.239242594344511
1056 1056 0.5006964860531171
1057 1056 0.24009656060975848
1056 1057 0.2400965606097585
1057 1057 0.4997063719327779
1058 1057 0.24262427751065144
1057 1058 0.24262427751065146
1058 1058 0.5065858014391096
1059 1058 -0.24507175842352877
1058 1059 -0.24507175842352916
1059 1059 0.49142251526137065
1060 1059 -0.2388614228953523
1059 1060 -0.23886142289535225
1060 1060 0.4972842689780201
1061 1060 -0.24213051317749476
1060 1061 -0.24213051317749476
1061 1061 0.4961860348618665
1062 1061 0.2401421907064892
1061 1062 0.2401421907064893
1062 1062 0.5036949703992945
1063 1062 -0.24123076202548485
1062 1063 -0.24123076202548493
1063 1063 0.4976218281072098
1064 1063 0.24048013359919077
1063 1064 0.2404801335991908
1064 1064 0.49858183940195744
1065 1064 -0.24391616038019204
1064 1065 -0.2439161603801921
1065 1065 0.5048426342223783
1066 1065 0.2410894678546232
1065 1066 0.24108946785462324
1066 1066 0.5016619702051461
1067 1066 -0.23742424361495224
1066 1067 -0.23742424361495212
1067 1067 0.4936018530836135
1068 1067 0.23313108254949405
1067 1068 0.23313108254949413
1068 1068 0.49850518294123125
1069 1068 0.24063526498882776
1068 1069 0.24063526498882776
1069 1069 0.4994766139789897
1070 1069 0.2424200277250191
1069 1070 0.2424200277250191
1070 1070 0.4990858989178193
1071 1070 -0.2414093105364519
1070 1071 -0.2414093105364519
1071 1071 0.5017128463996955
1072 1071 -0.24080629575531137
1071 1072 -0.24080629575531115
1072 1072 0.5058653075297457
1073 1072 -0.2446439706109664
1072 1073 -0.2446439706109665
1073 1073 0.4955179930078363
1074 1073 0.2456277139031267
1073 1074 0.2456277139031268
1074 1074 0.4985926990269794
1075 1074 -0.23882233845827228
1074 1075 -0.2388223384582723
1075 1075 0.5038472098744158
1076 1075 0.23917783757254135
1075 1076 0.23917783757254127
1076 1076 0.4947908687224109
1077 1076 0.24279532742878954
1076 1077 0.2427953274287896
1077 1077 0.506031329285731
1078 1077 -0.2401980545376774
1077 1078 -0.24019805453767729
1078 1078 0.49431941338473656
1079 1078 -0.23895659087207358
1078 1079 -0.2389565908720735
1079 1079 0.5018078690207126
1080 1079 -0.23990213485132972
1079 1080 -0.23990213485132958
1080 1080 0.4972924246137345
1081 1080 -0.24089974033003747
1080 1081 -0.24089974033003753
1081 1081 0.505554322717578
1082 1081 0.24390978466465943
1081 1082 0.24390978466465948
1082 1082 0.49965917401478904
1083 1082 -0.23851553483825036
1082 1083 -0.23851553483825041
1083 1083 0.5024864883396644
1084 1083 0.24288384119153045
1083 1084 0.24288384119153036
1084 1084 0.5023067241417658
1085 1084 -0.2397430154370098
1084 1085 -0.2397430154370097
1085 1085 0.5056184978457998
1086 1085 0.24055701219327483
1085 1086 0.2405570121932748
1086 1086 0.4996253562578976
1087 1086 -0.24017703360025655
1086 1087 -0.24017703360025675
1087 1087 0.5019872148877138
1088 1087 0.2404766713052206
1087 1088 0.24047667130522055
1088 1088 0.4968495820508387
1089 1088 0.24258906814343018
1088 1089 0.2425890681434302
1089 1089 0.5020301126978829
1090 1089 -0.23780096749747742
1089 1090 -0.23780096749747742
1090 1090 0.4972821664512529
1091 1090 -0.24047218848021223
1090 1091 -0.2404721884802122
1091 1091 0.5047351736408077
1092 1091 0.24394332076012668
1091 1092 0.24394332076012648
1092 1092 0.4987506404939282
1093 1092 -0.24235174725442568
1092 1093 -0.24235174725442563
1093 1093 0.49603746443185504
1094 1093 0.2400854818093908
1093 1094 0.2400854818093908
1094 1094 0.5000590569400845
1095 1094 -0.23589747881253953
1094 1095 -0.2358974788125394
1095 1095 0.496443251157442
1096 1095 0.24051604248526784
1095 1096 0.2405160424852677
1096 1096 0.5120468671579559
1097 1096 0.24047019099282577
1096 1097 0.24047019099282585
1097 1097 0.49747177633207096
1098 1097 0.24189127271036462
1097 1098 0.24189127271036456
1098 1098 0.49804063336098436
1099 1098 0.23897815260918778
1098 1099 0.23897815260918773
1099 1099 0.4966168927214122
1100 1099 -0.24155445993755387
1099 1100 -0.2415544599375538
1100 1100 0.5106536828506513
1101 1100 0.24420855208553
1100 1101 0.24420855208552988
1101 1101 0.4863743916679151
1102 1101 -0.2367588646000405
1101 1102 -0.2367588646000405
1102 1102 0.5004251716972085
1103 1102 -0.2409631637003803
1102 1103 -0.24096316370038018
1103 1103 0.506161911025104
1104 1103 -0.24150052406232872
1103 1104 -0.24150052406232875
1104 1104 0.4991058150573192
1105 1104 0.23939752660067692
1104 1105 0.2393975266006769
1105 1105 0.5019018861339296
1106 1105 0.2403223118730085
1105 1106 0.24032231187300845
1106 1106 0.5037146955928685
1107 1106 -0.24333558214112214
1106 1107 -0.24333558214112222
1107 1107 0.5014210512089579
1108 1107 -0.24287469558536667
1107 1108 -0.24287469558536695
1108 1108 0.49978046236042073
1109 1108 -0.24226266141046554
1108 1109 -0.24226266141046554
1109 1109 0.4980629230178764
1110 1109 -0.23533714306812478
1109 1110 -0.23533714306812487
1110 1110 0.505167033486584
1111 1110 0.24106772206452468
1110 1111 0.24106772206452448
1111 1111 0.49782230716115655
1112 1111 -0.24179107391359955
1111 1112 -0.2417910739135995
1112 1112 0.5028325231090982
1113 1112 0.24143745371628825
1112 1113 0.2414374537162883
1113 1113 0.499755898067921
1114 1113 0.2402672165065151
1113 1114 0.24026721650651522
1114 1114 0.5048257958237059
1115 1114 -0.2397376799483978
1114 1115 -0.23973767994839776
1115 1115 0.49061964607665287
1116 1115 -0.24014676089164746
1115 1116 -0.24014676089164738
1116 1116 0.5051039678359399
1117 1116 -0.24114484388323018
1116 1117 -0.24114484388323026
1117 1117 0.4998851001901433
1118 1117 -0.2352343039699038
1117 1118 -0.23523430396990383
1118 1118 0.49548157438390644
1119 1118 -0.24267330416357397
1118 1119 -0.24267330416357388
1119 1119 0.4958384151292187
1120 1119 0.2397214089263703
1119 1120 0.23972140892637048
1120 1120 0.4993323479416893
1121 1120 -0.2406896659120691
1120 1121 -0.24068966591206908
1121 1121 0.5026883090192767
1122 1121 -0.24168952232439336
1121 1122 -0.2416895223243934
1122 1122 0.5065921830088581
1123 1122 -0.24194461361708294
1122 1123 -0.241944613617083
1123 1123 0.5006869228319699
1124 1123 0.23963001065650824
1123 1124 0.2396300106565086
1124 1124 0.49750679746163057
1125 1124 0.2358340443758521
1124 1125 0.2358340443758521
1125 1125 0.5017904839462178
1126 1125 -0.24557309015589437
1125 1126 -0.2455730901558943
1126 1126 0.49479451562898136
1127 1126 0.23829087124499598
1126 1127 0.23829087124499598
1127 1127 0.49656669396250896
1128 1127 -0.23845337643096673
1127 1128 -0.23845337643096653
1128 1128 0.49844271043460386
1129 1128 0.24332164048756688
1128 1129 0.243321640487567
1129 1129 0.5075229222230314
1130 1129 0.23824387093304936
1129 1130 0.23824387093304933
1130 1130 0.502663546899768
1131 1130 0.23861336187850463
1130 1131 0.23861336187850457
1131 1131 0.5022281299519841
1132 1131 0.24288587828451602
1131 1132 0.24288587828451608
1132 1132 0.4971971087776417
1133 1132 -0.23597752807768613
1132 1133 -0.23597752807768618
1133 1133 0.49035462927910733
1134 1133 -0.23937707637397904
1133 1134 -0.23937707637397904
1134 1134 0.5059325503032698
1135 1134 -0.24072881975413365
1134 1135 -0.2407288197541334
1135 1135 0.4998143438971353
1136 1135 0.24362023086205428
1135 1136 0.24362023086205445
1136 1136 0.5056360867342045
1137 1136 0.2395480048651519
1136 1137 0.2395480048651519
1137 1137 0.5011265689409836
1138 1137 -0.2386620658511733
1137 1138 -0.23866206585117336
1138 1138 0.4984673401581921
1139 1138 0.23881980456457277
1138 1139 0.23881980456457277
1139 1139 0.5011902837475124
1140 1139 0.24068789392394183
1139 1140 0.24068789392394194
1140 1140 0.4978373519595353
1141 1140 -0.24066756534952247
1140 1141 -0.2406675653495224
1141 1141 0.5026075195444659
1142 1141 -0.2390715069620355
1141 1142 -0.23907150696203558
1142 1142 0.49511617730678065
1143 1142 -0.24005297732606984
1142 1143 -0.24005297732606984
1143 1143 0.5014030161981575
1144 1143 -0.24212959196376788
1143 1144 -0.24212959196376796
1144 1144 0.4991174689089124
1145 1144 0.23716209686708006
1144 1145 0.23716209686707998
1145 1145 0.49426974391172057
1146 1145 -0.24116469418371003
1145 1146 -0.2411646941837101
1146 1146 0.49683771947471717
1147 1146 -0.2385068540258145
1146 1147 -0.23850685402581456
1147 1147 0.5070186704145345
1148 1147 -0.24044831188949717
1147 1148 -0.24044831188949714
1148 1148 0.49810823693297107
1149 1148 -0.240331008163764
1148 1149 -0.24033100816376393
1149 1149 0.5029930484539583
1150 1149 0.23888513843894277
1149 1150 0.23888513843894305
1150 1150 0.5007984447587243
1151 1150 0.2363725950618041
1150 1151 0.23637259506180405
1151 1151 0.5060831318606009
1152 1151 -0.24007542076136817
1151 1152 -0.24007542076136834
1152 1152 0.5070955253754621
1153 1152 0.2383228409934888
1152 1153 0.23832284099348874
1153 1153 0.498256049739008
1154 1153 0.2426851012158985
1153 1154 0.2426851012158986
1154 1154 0.5005227349462014
1155 1154 -0.23794626807759933
1154 1155 -0.2379462680775995
1155 1155 0.5026922367051234
1156 1155 0.2400291701591413
1155 1156 0.24002917015914127
1156 1156 0.4927064165792488
1157 1156 -0.23854805623109368
1156 1157 -0.23854805623109368
1157 1157 0.5099026170257625
1158 1157 -0.23882229584793344
1157 1158 -0.2388222958479334
1158 1158 0.4972133692320524
1159 1158 -0.24058553443067468
1158 1159 -0.2405855344306749
1159 1159 0.4982959161516352
1160 1159 0.2368308521633161
1159 1160 0.2368308521633163
1160 1160 0.5021383356130612
1161 1160 0.24227626931611204
1160 1161 0.2422762693161121
1161 1161 0.49479114237873195
1162 1161 0.23647370758910694
1161 1162 0.2364737075891069
1162 1162 0.5016021120182403
1163 1162 -0.24037911824967606
1162 1163 -0.24037911824967598
1163 1163 0.4956225716559238
1164 1163 0.24162887817840403
1163 1164 0.24162887817840406
1164 1164 0.4949035762579473
1165 1164 -0.23890997988808735
1164 1165 -0.2389099798880873
1165 1165 0.49958926148056415
1166 1165 0.2427123179376079
1165 1166 0.24271231793760795
1166 1166 0.499172091208546
1167 1166 -0.23471576290421725
1166 1167 -0.23471576290421736
1167 1167 0.4986224219391937
1168 1167 0.24060368435383686
1167 1168 0.24060368435383667
1168 1168 0.5082453119278831
1169 1168 0.23661262953515627
1168 1169 0.23661262953515616
1169 1169 0.4992562716454184
1170 1169 -0.24086549316632921
1169 1170 -0.24086549316632935
1170 1170 0.5017860750197545
1171 1170 -0.23957939988943008
1170 1171 -0.23957939988943006
1171 1171 0.5001411160538732
1172 1171 -0.2358572493462148
1171 1172 -0.2358572493462147
1172 1172 0.5033947108527262
1173 1172 -0.23722350676704235
1172 1173 -0.23722350676704218
1173 1173 0.49635926506719785
1174 1173 0.23695461384977995
1173 1174 0.23695461384977998
1174 1174 0.5018726272825704
1175 1174 -0.23843968708051763
1174 1175 -0.23843968708051763
1175 1175 0.49585525247009893
1176 1175 0.23829977861184184
1175 1176 0.23829977861184173
1176 1176 0.5028379194432361
1177 1176 -0.23981952127030104
1176 1177 -0.23981952127030112
1177 1177 0.5025979058918362
1178 1177 -0.23956052193612465
1177 1178 -0.23956052193612457
1178 1178 0.49629569140876467
1179 1178 0.2375184405505721
1178 1179 0.23751844055057217
1179 1179 0.49117082372041937
1180 1179 -0.23737594196720882
1179 1180 -0.23737594196720882
1180 1180 0.4963725031352816
1181 1180 0.2380598739115096
1180 1181 0.23805987391150962
1181 1181 0.5021011472591416
1182 1181 0.23826788759888318
1181 1182 0.2382678875988833
1182 1182 0.498736309880736
1183 1182 0.24002090368702828
1182 1183 0.2400209036870284
1183 1183 0.499093501204958
1184 1183 0.23862287074253288
1183 1184 0.23862287074253277
1184 1184 0.5047436467315451
1185 1184 -0.23634869686735452
1184 1185 -0.23634869686735444
1185 1185 0.496761395762951
1186 1185 -0.24204417261776384
1185 1186 -0.24204417261776384
1186 1186 0.5026543538834211
1187 1186 -0.2360078619758049
1186 1187 -0.23600786197580492
1187 1187 0.49524778557052385
1188 1187 0.23651509009069388
1187 1188 0.23651509009069396
1188 1188 0.5013842243746598
1189 1188 -0.236669668002157
1188 1189 -0.23666966800215722
1189 1189 0.49326215139739926
1190 1189 -0.2336002246068488
1189 1190 -0.23360022460684887
1190 1190 0.5012234223494689
1191 1190 0.23987668158131456
1190 1191 0.2398766815813146
1191 1191 0.4951848999600517
1192 1191 -0.23832209483202627
1191 1192 -0.2383220948320266
1192 1192 0.4968195077978666
1193 1192 0.24072955202077878
1192 1193 0.24072955202077867
1193 1193 0.5052463636091076
1194 1193 -0.24165356437473554
1193 1194 -0.2416535643747355
1194 1194 0.49460273850671227
1195 1194 0.23775601326271836
1194 1195 0.23775601326271828
1195 1195 0.4972950793326886
1196 1195 0.23559379920758847
1195 1196 0.23559379920758844
1196 1196 0.4947351422480613
1197 1196 0.24066361504898426
1196 1197 0.24066361504898431
1197 1197 0.49972661185239486
1198 1197 0.23917625581622062
1197 1198 0.23917625581622048
1198 1198 0.49490376984960033
1199 1198 0.23548776945929115
1198 1199 0.2354877694592909
1199 1199 0.49631969539126497
1200 1199 -0.23902632924616118
1199 1200 -0.23902632924616116
1200 1200 0.4998627034742439
1201 1200 -0.23760313661091703
1200 1201 -0.2376031366109171
1201 1201 0.5056084135849186
1202 1201 0.23658149502650722
1201 1202 0.23658149502650724
1202 1202 0.49333987210341834
1203 1202 -0.2373670902542376
1202 1203 -0.23736709025423747
1203 1203 0.49419331393783766
1204 1203 -0.23983040760379398
1203 1204 -0.23983040760379395
1204 1204 0.5041698573988358
1205 1204 -0.23698265798630977
1204 1205 -0.23698265798630966
1205 1205 0.5119853259742704
1206 1205 0.23989391387841422
1205 1206 0.2398939138784142
1206 1206 0.496920101705957
1207 1206 0.23843153683951218
1206 1207 0.2384315368395121
1207 1207 0.49542255296847426
1208 1207 0.2345533843677038
1207 1208 0.2345533843677038
1208 1208 0.5000098124533903
1209 1208 0.24030310490082185
1208 1209 0.24030310490082188
1209 1209 0.5012868490213664
1210 1209 -0.23655607739199466
1209 1210 -0.23655607739199466
1210 1210 0.5000837987616614
1211 1210 -0.2364820296622317
1210 1211 -0.23648202966223167
1211 1211 0.5000610052525511
1212 1211 0.24006925288133385
1211 1212 0.24006925288133377
1212 1212 0.4978927266259229
1213 1212 0.23778261795076186
1212 1213 0.23778261795076186
1213 1213 0.5005275859742517
1214 1213 0.23732441711925678
1213 1214 0.2373244171192568
1214 1214 0.4959098307917975
1215 1214 0.23579400878782017
1214 1215 0.2357940087878202
1215 1215 0.5079608200456672
1216 1215 0.24233984617122542
1215 1216 0.24233984617122525
1216 1216 0.4996898673284761
1217 1216 -0.23560897626554306
1216 1217 -0.23560897626554306
1217 1217 0.5005458991555477
1218 1217 -0.2344246581102047
1217 1218 -0.23442465811020458
1218 1218 0.4995982989871275
1219 1218 0.23942907887065093
1218 1219 0.23942907887065099
1219 1219 0.5092756506572306
1220 1219 0.23924446076428757
1219 1220 0.23924446076428765
1220 1220 0.4965823010103317
1221 1220 0.23611278538182234
1220 1221 0.23611278538182234
1221 1221 0.49925859976194464
1222 1221 -0.2361849749760715
1221 1222 -0.23618497497607147
1222 1222 0.5000842185173093
1223 1222 0.2361615678562975
1222 1223 0.23616156785629744
1223 1223 0.49953042899799815
1224 1223 0.2374226536831717
1223 1224 0.23742265368317153
1224 1224 0.5073502794763356
1225 1224 0.23483175094023262
1224 1225 0.23483175094023254
1225 1225 0.5021644670237754
1226 1225 0.2393151599623013
1225 1226 0.23931515996230113
1226 1226 0.4969969249561456
1227 1226 0.23259771121487774
1226 1227 0.23259771121487782
1227 1227 0.499165965469727
1228 1227 0.24242943128238653
1227 1228 0.2424294312823865
1228 1228 0.5014105118978451
1229 1228 -0.23809946565249557
1228 1229 -0.23809946565249562
1229 1229 0.4960202340236011
1230 1229 0.2426973688546563
1229 1230 0.24269736885465631
1230 1230 0.5008028371617175
1231 1230 0.23508126450132935
1230 1231 0.2350812645013293
1231 1231 0.508150176469563
1232 1231 0.24017881037704292
1231 1232 0.24017881037704286
1232 1232 0.5077703992303376
1233 1232 -0.2372993481965408
1232 1233 -0.23729934819654083
1233 1233 0.49471626107809863
1234 1233 0.23611380895817746
1233 1234 0.23611380895817735
1234 1234 0.5069285744624952
1235 1234 -0.241925694283504
1234 1235 -0.24192569428350377
1235 1235 0.49694283583074617
1236 1235 -0.237328805073295
1235 1236 -0.2373288050732951
1236 1236 0.49974143992959136
1237 1236 0.23558901840626711
1236 1237 0.23558901840626717
1237 1237 0.5065176263656573
1238 1237 0.23917327350336773
1237 1238 0.23917327350336764
1238 1238 0.4973204816111842
1239 1238 0.23533450703105208
1238 1239 0.23533450703105227
1239 1239 0.5082676033389824
1240 1239 0.24069832020652326
1239 1240 0.24069832020652332
1240 1240 0.495026515332575
1241 1240 -0.2378531874193303
1240 1241 -0.23785318741933026
1241 1241 0.5004095976393023
1242 1241 -0.2351030113286107
1241 1242 -0.23510301132861067
1242 1242 0.4979712289927657
1243 1242 -0.23842731139543447
1242 1243 -0.23842731139543455
1243 1243 0.49597800921043494
1244 1243 -0.24144074784957278
1243 1244 -0.2414407478495728
1244 1244 0.5034459985974746
1245 1244 0.24059650654015297
1244 1245 0.24059650654015297
1245 1245 0.5038880207809795
1246 1245 0.2354821130517939
1245 1246 0.23548211305179392
1246 1246 0.49622287181299546
1247 1246 0.24121230888251866
1246 1247 0.24121230888251846
1247 1247 0.49853582723377277
1248 1247 0.23424484489987904
1247 1248 0.23424484489987898
1248 1248 0.5066896169619981
1249 1248 -0.23762614694254447
1248 1249 -0.2376261469425445
1249 1249 0.5026630541786662
1250 1249 -0.24105849870308
1249 1250 -0.24105849870308
1250 1250 0.5086170021965264
1251 1250 -0.23846224655152115
1250 1251 -0.23846224655152112
1251 1251 0.4936373683012807
1252 1251 0.23670362948277224
1251 1252 0.23670362948277213
1252 1252 0.505992615934554
1253 1252 -0.24571642287586637
1252 1253 -0.24571642287586634
1253 1253 0.4903882613414122
1254 1253 -0.2335793262006189
1253 1254 -0.23357932620061872
1254 1254 0.4971808434286997
1255 1254 0.23790273903782408
1254 1255 0.23790273903782408
1255 1255 0.5073759591707873
1256 1255 -0.23975463025514226
1255 1256 -0.23975463025514238
1256 1256 0.5073473669457764
1257 1256 -0.23253238584041516
1256 1257 -0.23253238584041525
1257 1257 0.4947568944416526
1258 1257 -0.23667880158405188
1257 1258 -0.23667880158405197
1258 1258 0.4998759686820834
1259 1258 0.2365160116142371
1258 1259 0.2365160116142371
1259 1259 0.5006965386735213
1260 1259 0.23578693510322737
1259 1260 0.2357869351032275
1260 1260 0.4993966262262079
1261 1260 0.24130541301620462
1260 1261 0.24130541301620462
1261 1261 0.503592953715507
1262 1261 0.23842571725171338
1261 1262 0.2384257172517134
1262 1262 0.49910010764498214
1263 1262 0.2360508543605123
1262 1263 0.23605085436051226
1263 1263 0.49733767194613726
1264 1263 0.2376063225878769
1263 1264 0.23760632258787698
1264 1264 0.5003210557776373
1265 1264 -0.23433548015711148
1264 1265 -0.2343354801571116
1265 1265 0.5056899354718684
1266 1265 -0.24243010917333543
1265 1266 -0.24243010917333552
1266 1266 0.49589705595204436
1267 1266 -0.23460926593352874
1266 1267 -0.23460926593352888
1267 1267 0.49897485852419643
1268 1267 0.24034026442506568
1267 1268 0.24034026442506543
1268 1268 0.5059876009377541
1269 1268 0.23883743929645745
1268 1269 0.23883743929645734
1269 1269 0.5009696292558887
1270 1269 -0.232394504467018
1269 1270 -0.23239450446701795
1270 1270 0.5035953438846605
1271 1270 0.24392916236996925
1270 1271 0.24392916236996925
1271 1271 0.5050155413681887
1272 1271 -0.23711820211293236
1271 1272 -0.2371182021129325
1272 1272 0.5023355984432434
1273 1272 0.23549914213866693
1272 1273 0.23549914213866688
1273 1273 0.49149352067662455
1274 1273 -0.23812990745272467
1273 1274 -0.23812990745272455
1274 1274 0.4961830203537312
1275 1274 0.24040110190933392
1274 1275 0.24040110190933403
1275 1275 0.5031444952717923
1276 1275 -0.2352564969882593
1275 1276 -0.23525649698825926
1276 1276 0.5009681771685572
1277 1276 0.2367915236148021
1276 1277 0.23679152361480227
1277 1277 0.49291798926338476
1278 1277 -0.23960442720218697
1277 1278 -0.23960442720218705
1278 1278 0.4944180446165859
1279 1278 0.23875497490546355
1278 1279 0.23875497490546324
1279 1279 0.5015652068452225
1280 1279 -0.23437641816375163
1279 1280 -0.23437641816375168
1280 1280 0.5046017527797579
1281 1280 -0.2369056560506614
1280 1281 -0.23690565605066136
1281 1281 0.4879588084756152
1282 1281 0.23423781717958933
1281 1282 0.23423781717958933
1282 1282 0.49567115358811875
1283 1282 0.233672392150604
1282 1283 0.23367239215060395
1283 1283 0.49964093699118456
1284 1283 -0.23635363384147132
1283 1284 -0.23635363384147123
1284 1284 0.5007245302502765
1285 1284 -0.23865395115697308
1284 1285 -0.23865395115697297
1285 1285 0.5012198625775817
1286 1285 0.23370907143156427
1285 1286 0.23370907143156425
1286 1286 0.504371300990839
1287 1286 0.23993380929680505
1286 1287 0.23993380929680505
1287 1287 0.5030430288156719
1288 1287 0.23342922372476274
1287 1288 0.23342922372476277
1288 1288 0.5041926935965759
1289 1288 0.23354342845913934
1288 1289 0.23354342845913945
1289 1289 0.5027761221095812
1290 1289 0.23981322728808313
1289 1290 0.23981322728808308
1290 1290 0.49340883692220006
1291 1290 -0.23507733805223954
1290 1291 -0.23507733805223946
1291 1291 0.49972564588974355
1292 1291 0.2354775243123648
1291 1292 0.23547752431236457
1292 1292 0.49483306198799026
1293 1292 -0.2364826803235873
1292 1293 -0.23648268032358724
1293 1293 0.4976870870973896
1294 1293 0.23831506637074149
1293 1294 0.23831506637074154
1294 1294 0.4994863884671824
1295 1294 0.23295419105411386
1294 1295 0.232954191054114
1295 1295 0.49384466471177946
1296 1295 0.2395973357015899
1295 1296 0.23959733570159006
1296 1296 0.5080492630739002
1297 1296 -0.23582017599583577
1296 1297 -0.23582017599583582
1297 1297 0.4994567967640595
1298 1297 -0.23682601045104132
1297 1298 -0.2368260104510414
1298 1298 0.4972826255745987
1299 1298 -0.23864459885544978
1298 1299 -0.23864459885544964
1299 1299 0.5022043792480304
1300 1299 0.23448881948537734
1299 1300 0.23448881948537723
1300 1300 0.5041478604403895
1301 1300 -0.23876571837598073
1300 1301 -0.23876571837598076
1301 1301 0.5035600381930313
1302 1301 -0.2392376480170137
1301 1302 -0.23923764801701386
1302 1302 0.49742068512319165
1303 1302 0.23400210452790218
1302 1303 0.23400210452790215
1303 1303 0.4942598925570672
1304 1303 0.23608905507213637
1303 1304 0.23608905507213646
1304 1304 0.49761457300495227
1305 1304 -0.23867990050059867
1304 1305 -0.2386799005005986
1305 1305 0.49482187675051104
1306 1305 0.2335553888168752
1305 1306 0.23355538881687535
1306 1306 0.5060016828525069
1307 1306 -0.23769200742885607
1306 1307 -0.23769200742885604
1307 1307 0.4914348689983439
1308 1307 0.2379559067035061
1307 1308 0.2379559067035061
1308 1308 0.4992821937846753
1309 1308 -0.23448242719820458
1308 1309 -0.23448242719820464
1309 1309 0.49775229644751073
1310 1309 0.23605289682288627
1309 1310 0.23605289682288638
1310 1310 0.5015725283323175
1311 1310 0.23596853331444123
1310 1311 0.23596853331444134
1311 1311 0.48907223668875954
1312 1311 -0.2330383445277705
1311 1312 -0.23303834452777045
1312 1312 0.5060899851506102
1313 1312 0.2367569239595304
1312 1313 0.2367569239595305
1313 1313 0.4900073893511546
1314 1313 -0.23759446105028606
1313 1314 -0.2375944610502861
1314 1314 0.5000866637586293
1315 1314 -0.2387480472548447
1314 1315 -0.238748047254845
1315 1315 0.49853214127191614
1316 1315 -0.23287128285871497
1315 1316 -0.23287128285871517
1316 1316 0.5037524749677036
1317 1316 -0.23300391765526565
1316 1317 -0.23300391765526554
1317 1317 0.4963937149160906
1318 1317 -0.2353316395118731
1317 1318 -0.23533163951187303
1318 1318 0.48915765258436333
1319 1318 -0.23258765725146957
1318 1319 -0.23258765725146963
1319 1319 0.5021835092248805
1320 1319 -0.23533471759724023
1319 1320 -0.2353347175972402
1320 1320 0.4978576899001023
1321 1320 0.2377691489657714
1320 1321 0.2377691489657715
1321 1321 0.5041905199635426
1322 1321 -0.2348420071470682
1321 1322 -0.234842007147068
1322 1322 0.49783008055170475
1323 1322 -0.2377103650470853
1322 1323 -0.2377103650470855
1323 1323 0.508502177455607
1324 1323 -0.23659229307278443
1323 1324 -0.2365922930727846
1324 1324 0.5000117450647219
1325 1324 -0.23506918842844723
1324 1325 -0.23506918842844726
1325 1325 0.504698362862566
1326 1325 0.23788229024951796
1325 1326 0.23788229024951804
1326 1326 0.49899611622159584
1327 1326 0.23980010917425568
1326 1327 0.23980010917425593
1327 1327 0.49958376733117166
1328 1327 0.23325615472142902
1327 1328 0.23325615472142888
1328 1328 0.49832299073675035
1329 1328 0.23824420116993794
1328 1329 0.23824420116993797
1329 1329 0.5043939301425968
1330 1329 -0.23451358393722568
1329 1330 -0.23451358393722566
1330 1330 0.4872904404212542
1331 1330 0.23500090589568717
1330 1331 0.2350009058956872
1331 1331 0.5107094172511024
1332 1331 -0.23468636161281817
1331 1332 -0.2346863616128184
1332 1332 0.4958003318099368
1333 1332 -0.23385458308337784
1332 1333 -0.23385458308337778
1333 1333 0.49925318439920063
1334 1333 0.23949585124193226
1333 1334 0.23949585124193223
1334 1334 0.4870970332180991
1335 1334 0.23670797586844114
1334 1335 0.2367079758684413
1335 1335 0.49814929585948997
1336 1335 -0.23653337547139136
1335 1336 -0.2365333754713915
1336 1336 0.4997830114882692
1337 1336 0.23565146550333665
1336 1337 0.23565146550333677
1337 1337 0.5060884913330123
1338 1337 -0.23256974407366496
1337 1338 -0.232569744073665
1338 1338 0.49929575023480766
1339 1338 -0.23520784393220248
1338 1339 -0.23520784393220232
1339 1339 0.4996210843011937
1340 1339 0.23443371371035276
1339 1340 0.23443371371035282
1340 1340 0.4937540651070391
1341 1340 -0.2373854621904615
1340 1341 -0.23738546219046155
1341 1341 0.49735243345971825
1342 1341 0.2360127656688224
1341 1342 0.23601276566882232
1342 1342 0.5094933900008068
1343 1342 -0.23079679313810564
1342 1343 -0.23079679313810558
1343 1343 0.5003571573013248
1344 1343 -0.23848017410543426
1343 1344 -0.23848017410543423
1344 1344 0.5062322909388104
1345 1344 0.2348982450626
1344 1345 0.2348982450626
1345 1345 0.506700518767254
1346 1345 0.24140999417787942
1345 1346 0.24140999417787934
1346 1346 0.5010984678431101
1347 1346 0.23096208490205689
1346 1347 0.23096208490205683
1347 1347 0.5035161829000395
1348 1347 0.23502962330158392
1347 1348 0.23502962330158397
1348 1348 0.5036246416032254
1349 1348 -0.2336412031617179
1348 1349 -0.233641203161718
1349 1349 0.49605001005245597
1350 1349 0.24092080334040597
1349 1350 0.24092080334040594
1350 1350 0.5014614939915837
1351 1350 0.23608870904936868
1350 1351 0.2360887090493684
1351 1351 0.4955468532828939
1352 1351 -0.23440196252122567
1351 1352 -0.23440196252122558
1352 1352 0.5005887800329675
1353 1352 0.23964042661733023
1352 1353 0.23964042661733018
1353 1353 0.5077181718536892
1354 1353 0.23615055192059492
1353 1354 0.236150551920595
1354 1354 0.5007446776911404
1355 1354 0.23817128764569268
1354 1355 0.2381712876456925
1355 1355 0.4943475460559895
1356 1355 -0.2332597296770223
1355 1356 -0.2332597296770221
1356 1356 0.49627073464388893
1357 1356 -0.23434930605232604
1356 1357 -0.23434930605232612
1357 1357 0.5022656566514322
1358 1357 0.2339084033776742
1357 1358 0.233908403377674
1358 1358 0.5011725339004757
1359 1358 -0.23613950057011332
1358 1359 -0.23613950057011326
1359 1359 0.4989041593475944
1360 1359 -0.2310389541550993
1359 1360 -0.23103895415509934
1360 1360 0.49538100865918644
1361 1360 -0.23785707403514508
1360 1361 -0.237857074035145
1361 1361 0.5015670834496713
1362 1361 0.23639529993848193
1361 1362 0.23639529993848207
1362 1362 0.49914836589885553
1363 1362 -0.2343474789367256
1362 1363 -0.23434747893672558
1363 1363 0.49553780724113006
1364 1363 0.23771473486354341
1363 1364 0.2377147348635433
1364 1364 0.5006720443229351
1365 1364 0.23132665092201485
1364 1365 0.2313266509220149
1365 1365 0.49950855814502376
1366 1365 0.2350043662972351
1365 1366 0.23500436629723506
1366 1366 0.4989877727779523
1367 1366 0.23586087662948427
1366 1367 0.23586087662948424
1367 1367 0.5071325578468754
1368 1367 0.23060314991729317
1367 1368 0.2306031499172932
1368 1368 0.50864405597916
1369 1368 -0.2335774307754597
1368 1369 -0.23357743077545967
1369 1369 0.4924818044946684
1370 1369 0.23190826466452358
1369 1370 0.23190826466452372
1370 1370 0.49794433584872455
1371 1370 0.23586611467327248
1370 1371 0.23586611467327234
1371 1371 0.5043319234485928
1372 1371 0.23753440559819275
1371 1372 0.23753440559819244
1372 1372 0.49323988062739615
1373 1372 -0.23345486839111482
1372 1373 -0.2334548683911149
1373 1373 0.5037776818923119
1374 1373 0.23536326217333187
1373 1374 0.23536326217333192
1374 1374 0.49907377048470175
1375 1374 0.2339691552721043
1374 1375 0.2339691552721044
1375 1375 0.49723350032836794
1376 1375 -0.23577741025965593
1375 1376 -0.23577741025965587
1376 1376 0.497385434414014
1377 1376 0.2370544950746188
1376 1377 0.23705449507461876
1377 1377 0.5048683059119548
1378 1377 0.23323099510347067
1377 1378 0.2332309951034706
1378 1378 0.5080459485279788
1379 1378 0.23196397956373235
1378 1379 0.23196397956373227
1379 1379 0.49658806308489956
1380 1379 0.2352803594922106
1379 1380 0.23528035949221082
1380 1380 0.4980732622574891
1381 1380 -0.23204429815218836
1380 1381 -0.23204429815218824
1381 1381 0.49961843292630215
1382 1381 -0.2390806912563485
1381 1382 -0.2390806912563484
1382 1382 0.5011446107355464
1383 1382 0.2365770379592372
1382 1383 0.23657703795923762
1383 1383 0.5006482337038461
1384 1383 0.23358232222851133
1383 1384 0.23358232222851136
1384 1384 0.5020714751172823
1385 1384 -0.23368407921208262
1384 1385 -0.2336840792120826
1385 1385 0.4983559407789472
1386 1385 0.2386652308355566
1385 1386 0.23866523083555657
1386 1386 0.5004665054716466
1387 1386 -0.23329952376313912
1386 1387 -0.23329952376313895
1387 1387 0.5029393010998213
1388 1387 0.237032487666782
1387 1388 0.2370324876667822
1388 1388 0.4950903300547487
1389 1388 -0.23352756595050245
1388 1389 -0.23352756595050234
1389 1389 0.509984410955627
1390 1389 -0.23447179281083336
1389 1390 -0.23447179281083338
1390 1390 0.5004635872806023
1391 1390 0.23287785131725428
1390 1391 0.232877851317254
1391 1391 0.4949765360547755
1392 1391 -0.23459830477513363
1391 1392 -0.2345983047751336
1392 1392 0.49820406041764875
1393 1392 -0.23660814339488997
1392 1393 -0.23660814339488986
1393 1393 0.5080804259983122
1394 1393 0.23204499368447493
1393 1394 0.232044993684475
1394 1394 0.49642466014378017
1395 1394 -0.23250865303377974
1394 1395 -0.23250865303377946
1395 1395 0.5026631258028749
1396 1395 0.23544598438846057
1395 1396 0.23544598438846046
1396 1396 0.49354561168756744
1397 1396 0.23544827274755914
1396 1397 0.23544827274755914
1397 1397 0.49945225178571584
1398 1397 0.23562565724014575
1397 1398 0.2356256572401458
1398 1398 0.503190401128339
1399 1398 0.2352318858762144
1398 1399 0.23523188587621438
1399 1399 0.4968837097957695
1400 1399 -0.23352578588998577
1399 1400 -0.2335257858899858
1400 1400 0.49684947641919175
1401 1400 0.23272126065315032
1400 1401 0.2327212606531504
1401 1401 0.5043907396570779
1402 1401 -0.23693397035247185
1401 1402 -0.23693397035247168
1402 1402 0.49828403023453977
1403 1402 -0.233903415448527
1402 1403 -0.2339034154485269
1403 1403 0.5057241640408685
1404 1403 0.235910809010665
1403 1404 0.23591080901066505
1404 1404 0.5055402537002975
1405 1404 -0.23797611875422256
1404 1405 -0.23797611875422256
1405 1405 0.496715145729906
1406 1405 0.2356614413890864
1405 1406 0.2356614413890864
1406 1406 0.505595932847211
1407 1406 -0.23471594820417926
1406 1407 -0.23471594820417924
1407 1407 0.49581705235052814
1408 1407 0.23612711854481983
1407 1408 0.2361271185448201
1408 1408 0.510272915051353
1409 1408 -0.23212676485634767
1408 1409 -0.23212676485634764
1409 1409 0.49806441295267395
1410 1409 -0.2330834808737157
1409 1410 -0.23308348087371583
1410 1410 0.4949462318199844
1411 1410 0.23601770933726285
1410 1411 0.23601770933726307
1411 1411 0.49601557872086366
1412 1411 0.23161235056617574
1411 1412 0.2316123505661758
1412 1412 0.5021549504913809
1413 1412 -0.2332628465506125
1412 1413 -0.23326284655061247
1413 1413 0.4986036468806768
1414 1413 0.2322244735991646
1413 1414 0.23222447359916465
1414 1414 0.48947228776459495
1415 1414 0.2309975364460894
1414 1415 0.2309975364460894
1415 1415 0.5025753873139647
1416 1415 -0.23496687333403335
1415 1416 -0.2349668733340333
1416 1416 0.4990311017077747
1417 1416 -0.23278793750236054
1416 1417 -0.2327879375023607
1417 1417 0.5089851207808493
1418 1417 0.23592329651795668
1417 1418 0.23592329651795668
1418 1418 0.49131054571491245
1419 1418 0.23410960788578652
1418 1419 0.23410960788578633
1419 1419 0.5039021677668598
1420 1419 0.23771648337150827
1419 1420 0.23771648337150844
1420 1420 0.5035083658696736
1421 1420 0.2311254131618891
1420 1421 0.231125413161889
1421 1421 0.49582722174524496
1422 1421 -0.23441897800965883
1421 1422 -0.23441897800965877
1422 1422 0.5007379991854832
1423 1422 -0.23358521993293746
1422 1423 -0.23358521993293752
1423 1423 0.502882562706797
1424 1423 0.22631766243208748
1423 1424 0.22631766243208762
1424 1424 0.49178849803544206
1425 1424 0.23662062675158219
1424 1425 0.23662062675158216
1425 1425 0.5063973365834196
1426 1425 0.2354856981174789
1425 1426 0.23548569811747894
1426 1426 0.5002460388299625
1427 1426 0.2300694148578125
1426 1427 0.2300694148578125
1427 1427 0.4988291257458946
1428 1427 0.23325063155338321
1427 1428 0.23325063155338333
1428 1428 0.4962478961867297
1429 1428 -0.23371946248156877
1428 1429 -0.23371946248156883
1429 1429 0.4983471096661364
1430 1429 -0.23106814994753508
1429 1430 -0.23106814994753497
1430 1430 0.5027685503989793
1431 1430 -0.231788673385747
1430 1431 -0.23178867338574713
1431 1431 0.5011602432506786
1432 1431 0.2348845164744641
1431 1432 0.23488451647446396
1432 1432 0.5019589256576795
1433 1432 -0.2327918266850164
1432 1433 -0.23279182668501638
1433 1433 0.4971895285155311
1434 1433 -0.23697468270645414
1433 1434 -0.2369746827064541
1434 1434 0.5014516982872901
1435 1434 -0.2295833953879439
1434 1435 -0.22958339538794373
1435 1435 0.5010671334690444
1436 1435 -0.23362538555550041
1435 1436 -0.2336253855555002
1436 1436 0.49398513124384463
1437 1436 0.2336567314726215
1436 1437 0.23365673147262161
1437 1437 0.5037060205676435
1438 1437 0.23358434452622362
1437 1438 0.23358434452622376
1438 1438 0.503396070538876
1439 1438 -0.23130418673472
1438 1439 -0.23130418673472014
1439 1439 0.4935685399982817
1440 1439 0.23205248487332955
1439 1440 0.23205248487332952
1440 1440 0.49782816298172866
1441 1440 -0.23822182931508593
1440 1441 -0.23822182931508593
1441 1441 0.5017851207376147
1442 1441 -0.22983994282958747
1441 1442 -0.22983994282958747
1442 1442 0.49607132321897596
1443 1442 -0.23170165511626378
1442 1443 -0.23170165511626392
1443 1443 0.4968898898166069
1444 1443 -0.23126044374776256
1443 1444 -0.23126044374776264
1444 1444 0.4996867915011895
1445 1444 0.2340214182058426
1444 1445 0.23402141820584266
1445 1445 0.5030501997862701
1446 1445 0.2350538618609518
1445 1446 0.23505386186095167
1446 1446 0.5024119591905549
1447 1446 0.23170955321438086
1446 1447 0.23170955321438083
1447 1447 0.4891053023851871
1448 1447 0.231736237111034
1447 1448 0.2317362371110339
1448 1448 0.5030227603211797
1449 1448 0.23251830699662512
1448 1449 0.2325183069966252
1449 1449 0.500861460290048
1450 1449 0.23547442776084662
1449 1450 0.23547442776084665
1450 1450 0.49585255371531867
1451 1450 -0.23173276982508298
1450 1451 -0.231732769825083
1451 1451 0.5072764521632829
1452 1451 0.23061854316779667
1451 1452 0.23061854316779645
1452 1452 0.5001616240279705
1453 1452 -0.23291296599895728
1452 1453 -0.2329129659989571
1453 1453 0.49571476308413087
1454 1453 -0.2318896411507677
1453 1454 -0.23188964115076785
1454 1454 0.49180530837884584
1455 1454 -0.2380561371308654
1454 1455 -0.23805613713086535
1455 1455 0.5102328081867357
1456 1455 0.2306858370219788
1455 1456 0.23068583702197895
1456 1456 0.4931452604493565
1457 1456 -0.23518823942595887
1456 1457 -0.2351882394259589
1457 1457 0.5034366011587564
1458 1457 0.2314781566957123
1457 1458 0.23147815669571237
1458 1458 0.49997298795807626
1459 1458 0.23514754601744464
1458 1459 0.23514754601744456
1459 1459 0.5009850716857464
1460 1459 0.23147114481867898
1459 1460 0.2314711448186789
1460 1460 0.4996541771385708
1461 1460 -0.23570121356702933
1460 1461 -0.23570121356702955
1461 1461 0.5035061675228792
1462 1461 0.2339624884635474
1461 1462 0.23396248846354728
1462 1462 0.5025716227683874
1463 1462 -0.23408207133674472
1462 1463 -0.234082071336745
1463 1463 0.4929879203881029
1464 1463 0.23166362776769184
1463 1464 0.23166362776769173
1464 1464 0.49883102069114027
1465 1464 -0.23579000235084827
1464 1465 -0.2357900023508483
1465 1465 0.49736698167533244
1466 1465 0.23378353141889727
1465 1466 0.23378353141889718
1466 1466 0.5024344848659785
1467 1466 0.2339136397544924
1466 1467 0.23391363975449248
1467 1467 0.4960704401961323
1468 1467 -0.23618361272910393
1467 1468 -0.23618361272910396
1468 1468 0.5077016829012995
1469 1468 0.23527068481714436
1468 1469 0.2352706848171445
1469 1469 0.49726105507135177
1470 1469 -0.23032218806137447
1469 1470 -0.23032218806137444
1470 1470 0.5002929103508115
1471 1470 0.2357842437436162
1470 1471 0.23578424374361595
1471 1471 0.4975365721352396
1472 1471 0.23308426458060474
1471 1472 0.23308426458060477
1472 1472 0.5039886649455232
1473 1472 -0.23349770502384698
1472 1473 -0.23349770502384695
1473 1473 0.5041923099682609
1474 1473 -0.23298231129698127
1473 1474 -0.23298231129698124
1474 1474 0.5071956730168484
1475 1474 -0.23557761701286561
1474 1475 -0.23557761701286567
1475 1475 0.5011426771357439
1476 1475 -0.2312806056316595
1475 1476 -0.23128060563165936
1476 1476 0.4976175245303369
1477 1476 0.22974171856706277
1476 1477 0.22974171856706285
1477 1477 0.5023545645971164
1478 1477 -0.23643331236221393
1477 1478 -0.23643331236221404
1478 1478 0.49403059041672215
1479 1478 -0.23400803303028644
1478 1479 -0.2340080330302869
1479 1479 0.5053377191979589
1480 1479 0.2272267443147081
1479 1480 0.22722674431470805
1480 1480 0.5023106612730817
1481 1480 0.23354925822235034
1480 1481 0.23354925822235034
1481 1481 0.502844038529992
1482 1481 0.23475904817423496
1481 1482 0.23475904817423518
1482 1482 0.4994014500522669
1483 1482 -0.23398954972746375
1482 1483 -0.23398954972746389
1483 1483 0.5082201034258642
1484 1483 -0.23021748171766
1483 1484 -0.23021748171765993
1484 1484 0.4987173494746068
1485 1484 -0.23248606485500492
1484 1485 -0.23248606485500495
1485 1485 0.5044708145478448
1486 1485 -0.23509288001030473
1485 1486 -0.23509288001030482
1486 1486 0.493322177327677
1487 1486 -0.23014285150116454
1486 1487 -0.23014285150116465
1487 1487 0.505985636316955
1488 1487 -0.2336812223180149
1487 1488 -0.23368122231801494
1488 1488 0.4943616327004612
1489 1488 0.2340758343433388
1488 1489 0.23407583434333884
1489 1489 0.49852371334202483
1490 1489 0.22971595556102786
1489 1490 0.22971595556102783
1490 1490 0.5039875982338893
1491 1490 0.22997911239769317
1490 1491 0.2299791123976933
1491 1491 0.5036456925500638
1492 1491 -0.23264534257514374
1491 1492 -0.2326453425751437
1492 1492 0.4967134396284111
1493 1492 -0.23707543829424182
1492 1493 -0.23707543829424185
1493 1493 0.5123930916343797
1494 1493 -0.22707206733234803
1493 1494 -0.22707206733234797
1494 1494 0.49113058473998455
1495 1494 0.23195743272931812
1494 1495 0.23195743272931807
1495 1495 0.4967456698741832
1496 1495 -0.23414160416684587
1495 1496 -0.23414160416684585
1496 1496 0.5010555359811841
1497 1496 -0.23040450169656299
1496 1497 -0.23040450169656299
1497 1497 0.5037772544745552
1498 1497 0.23324167529027104
1497 1498 0.23324167529027112
1498 1498 0.5027125616339814
1499 1498 0.23332551684465092
1498 1499 0.2333255168446511
1499 1499 0.5003247876255947
1500 1499 -0.23296103417326067
1499 1500 -0.2329610341732609
1500 1500 0.49438766925439875
1501 1500 -0.23147899964443402
1500 1501 -0.23147899964443405
1501 1501 0.5062605700827572
1502 1501 -0.22886483919559475
1501 1502 -0.2288648391955947
1502 1502 0.4922458658079393
1503 1502 0.23382807279559417
1502 1503 0.2338280727955945
1503 1503 0.501557404303309
1504 1503 0.2317331010977535
1503 1504 0.23173310109775333
1504 1504 0.4942460894987728
1505 1504 0.23445759483667253
1504 1505 0.23445759483667242
1505 1505 0.5051676200768049
1506 1505 -0.23076710521958202
1505 1506 -0.23076710521958205
1506 1506 0.49018496486560914
1507 1506 0.2311636958996436
1506 1507 0.2311636958996436
1507 1507 0.5125508903322733
1508 1507 0.22929551669765114
1507 1508 0.2292955166976511
1508 1508 0.49864179137961834
1509 1508 0.23184059666836362
1508 1509 0.23184059666836346
1509 1509 0.49727198971121855
1510 1509 0.23185309212141642
1509 1510 0.23185309212141644
1510 1510 0.5057844068978962
1511 1510 0.23066606962290934
1510 1511 0.23066606962290934
1511 1511 0.5008426089677674
1512 1511 0.2321980956267266
1511 1512 0.23219809562672658
1512 1512 0.5025206069090743
1513 1512 0.2335953637426695
1512 1513 0.23359536374266948
1513 1513 0.49895056980320546
1514 1513 -0.23053711350662803
1513 1514 -0.23053711350662795
1514 1514 0.49653159255058177
1515 1514 0.23084578384804783
1514 1515 0.2308457838480477
1515 1515 0.4988136649766063
1516 1515 0.229262436088761
1515 1516 0.22926243608876096
1516 1516 0.5043450158743631
1517 1516 -0.23380202238425202
1516 1517 -0.23380202238425196
1517 1517 0.49962974919852365
1518 1517 0.228775486508424
1517 1518 0.228775486508424
1518 1518 0.49738180167651974
1519 1518 0.2324440957265749
1518 1519 0.2324440957265746
1519 1519 0.490620138435631
1520 1519 0.22981208274817785
1519 1520 0.22981208274817777
1520 1520 0.5011777694381179
1521 1520 -0.23048482527995295
1520 1521 -0.23048482527995295
1521 1521 0.5009453027255659
1522 1521 -0.2342723042795338
1521 1522 -0.23427230427953383
1522 1522 0.5021439061595792
1523 1522 0.23073026822895487
1522 1523 0.2307302682289549
1523 1523 0.5005118561943951
1524 1523 0.2301506807729294
1523 1524 0.2301506807729294
1524 1524 0.4964776648746623
1525 1524 0.23326883660894593
1524 1525 0.23326883660894593
1525 1525 0.5022221619735923
1526 1525 0.23536583986128765
1525 1526 0.23536583986128765
1526 1526 0.5000415815527245
1527 1526 0.2225658624958768
1526 1527 0.22256586249587673
1527 1527 0.5059304319715638
1528 1527 0.22928951791996222
1527 1528 0.22928951791996233
1528 1528 0.4892621951403514
1529 1528 0.23684587335028154
1528 1529 0.23684587335028143
1529 1529 0.5036195618657902
1530 1529 -0.23024322700788788
1529 1530 -0.23024322700788782
1530 1530 0.49912798585858426
1531 1530 -0.23034340182890958
1530 1531 -0.23034340182890958
1531 1531 0.49639060488804887
1532 1531 0.22942146416266232
1531 1532 0.2294214641626622
1532 1532 0.4920322036127068
1533 1532 0.23229054149823805
1532 1533 0.23229054149823802
1533 1533 0.515186210173314
1534 1533 0.23006787376683216
1533 1534 0.23006787376683205
1534 1534 0.4965076076509894
1535 1534 -0.229624636959616
1534 1535 -0.2296246369596161
1535 1535 0.49806479563223566
1536 1535 0.23277400490613886
1535 1536 0.23277400490613895
1536 1536 0.49331429927369724
1537 1536 -0.22764982298587055
1536 1537 -0.2276498229858705
1537 1537 0.5020017807199265
1538 1537 0.23218094019350433
1537 1538 0.23218094019350424
1538 1538 0.5001515278719044
1539 1538 0.22640541965058322
1538 1539 0.22640541965058342
1539 1539 0.5013286489467962
1540 1539 -0.23258643071666948
1539 1540 -0.2325864307166695
1540 1540 0.500018335957727
1541 1540 -0.23086737057483372
1540 1541 -0.2308673705748336
1541 1541 0.4991245852194133
1542 1541 0.22986784202872773
1541 1542 0.2298678420287277
1542 1542 0.49942997333115036
1543 1542 0.23175502091778225
1542 1543 0.23175502091778208
1543 1543 0.49900184551740484
1544 1543 0.2290682040798421
1543 1544 0.22906820407984219
1544 1544 0.5014653943170511
1545 1544 -0.2366188500518418
1544 1545 -0.23661885005184188
1545 1545 0.5054318903686528
1546 1545 -0.2307562866714867
1545 1546 -0.23075628667148668
1546 1546 0.4939808546392763
1547 1546 0.22896413846850688
1546 1547 0.22896413846850708
1547 1547 0.5035342977106179
1548 1547 0.23302321393229145
1547 1548 0.23302321393229147
1548 1548 0.49909245018278914
1549 1548 0.22877324594464507
1548 1549 0.22877324594464507
1549 1549 0.5003378827823978
1550 1549 0.22656038998302833
1549 1550 0.22656038998302835
1550 1550 0.5017576955530607
1551 1550 0.22960501062749228
1550 1551 0.22960501062749208
1551 1551 0.5106069368582151
1552 1551 0.23029671631979037
1551 1552 0.2302967163197906
1552 1552 0.49964344953921436
1553 1552 0.22984941712701146
1552 1553 0.2298494171270115
1553 1553 0.5003239851959502
1554 1553 0.2270396490598067
1553 1554 0.22703964905980673
1554 1554 0.5004803929554283
1555 1554 0.22946530266238369
1554 1555 0.22946530266238355
1555 1555 0.4992752425993989
1556 1555 -0.232254220651526
1555 1556 -0.23225422065152612
1556 1556 0.49551355551547865
1557 1556 0.22937408712118318
1556 1557 0.22937408712118337
1557 1557 0.5034022693216069
1558 1557 -0.23206234868042058
1557 1558 -0.23206234868042072
1558 1558 0.5000195240843589
1559 1558 -0.23138133388935272
1558 1559 -0.23138133388935261
1559 1559 0.4997955288536583
1560 1559 0.23057813887757347
1559 1560 0.23057813887757345
1560 1560 0.49649738745707106
1561 1560 0.23004772417338715
1560 1561 0.23004772417338717
1561 1561 0.5085421675656927
1562 1561 -0.22767889310158212
1561 1562 -0.2276788931015821
1562 1562 0.49108599620931714
1563 1562 -0.2297246090630334
1562 1563 -0.22972460906303344
1563 1563 0.5048737914828569
1564 1563 -0.2302561977975489
1563 1564 -0.23025619779754888
1564 1564 0.49664280024314483
1565 1564 -0.23271406911487819
1564 1565 -0.23271406911487819
1565 1565 0.4959606426275339
1566 1565 0.22619697278910056
1565 1566 0.22619697278910056
1566 1566 0.5004198145839218
1567 1566 0.23500320082407408
1566 1567 0.23500320082407408
1567 1567 0.4930823763486385
1568 1567 0.22755065037163225
1567 1568 0.22755065037163238
1568 1568 0.49815202593734365
1569 1568 0.23536700659193316
1568 1569 0.23536700659193316
1569 1569 0.5039391496465494
1570 1569 0.22701286728031683
1569 1570 0.22701286728031683
1570 1570 0.4976622197110415
1571 1570 -0.2304935718410539
1570 1571 -0.23049357184105398
1571 1571 0.5057808943380628
1572 1571 0.22764239005417003
1571 1572 0.22764239005417014
1572 1572 0.50287329153072
1573 1572 0.23073604854778598
1572 1573 0.230736048547786
1573 1573 0.4968596303703624
1574 1573 0.2287270303526394
1573 1574 0.22872703035263942
1574 1574 0.4984995389371556
1575 1574 0.23291052776352028
1574 1575 0.23291052776352011
1575 1575 0.500403903993959
1576 1575 -0.22787001461517342
1575 1576 -0.22787001461517337
1576 1576 0.5018371666975099
1577 1576 -0.2319975034797745
1576 1577 -0.2319975034797745
1577 1577 0.5029977426080586
1578 1577 -0.23116055811434602
1577 1578 -0.23116055811434588
1578 1578 0.5004555299070228
1579 1578 -0.23122012305335568
1578 1579 -0.23122012305335563
1579 1579 0.4962232288088808
1580 1579 0.22960490135428555
1579 1580 0.22960490135428555
1580 1580 0.502157299923716
1581 1580 0.22992394907242075
1580 1581 0.22992394907242075
1581 1581 0.4937133741602674
1582 1581 0.2317650209853508
1581 1582 0.2317650209853506
1582 1582 0.5032593427192423
1583 1582 0.2282311012889722
1582 1583 0.22823110128897217
1583 1583 0.4973290692000643
1584 1583 0.22882711916804443
1583 1584 0.2288271191680446
1584 1584 0.500160508747804
1585 1584 0.23311904051436297
1584 1585 0.23311904051436294
1585 1585 0.503636917255581
1586 1585 -0.22532828428267224
1585 1586 -0.2253282842826722
1586 1586 0.4991632748581838
1587 1586 -0.231632002063149
1586 1587 -0.23163200206314877
1587 1587 0.5015871440869701
1588 1587 -0.2303247676413314
1587 1588 -0.23032476764133142
1588 1588 0.5035741975141378
1589 1588 -0.22517427559022585
1588 1589 -0.22517427559022601
1589 1589 0.4941882624047592
1590 1589 -0.23108623314149074
1589 1590 -0.23108623314149074
1590 1590 0.5009358822693699
1591 1590 -0.22939269714508043
1590 1591 -0.22939269714508026
1591 1591 0.5013395241956586
1592 1591 -0.23040687005037058
1591 1592 -0.23040687005037067
1592 1592 0.49934099873299975
1593 1592 -0.22786873956534387
1592 1593 -0.22786873956534381
1593 1593 0.5014340968828717
1594 1593 -0.228469947214252
1593 1594 -0.22846994721425207
1594 1594 0.4983895152656315
1595 1594 -0.2255979145163639
1594 1595 -0.2255979145163639
1595 1595 0.49098405894629943
1596 1595 -0.22767671111568857
1595 1596 -0.22767671111568863
1596 1596 0.49740724006285114
1597 1596 -0.22585033403849988
1596 1597 -0.2258503340384997
1597 1597 0.5043575462573836
1598 1597 -0.23077707489739424
1597 1598 -0.23077707489739416
1598 1598 0.4939742435307335
1599 1598 -0.22783318375589157
1598 1599 -0.22783318375589154
1599 1599 0.49894992364369106
1600 1599 0.22873120041192144
1599 1600 0.22873120041192124
1600 1600 0.4976317537600264
1601 1600 0.22829545659896225
1600 1601 0.22829545659896214
1601 1601 0.4968824401997403
1602 1601 0.2308176996255056
1601 1602 0.23081769962550566
1602 1602 0.5037034150081832
1603 1602 0.22692906690810194
1602 1603 0.2269290669081018
1603 1603 0.500428563355211
1604 1603 -0.23083726475359953
1603 1604 -0.2308372647535997
1604 1604 0.5032697802445527
1605 1604 -0.23003850046633526
1604 1605 -0.23003850046633492
1605 1605 0.4952724963252173
1606 1605 -0.22555509007322785
1605 1606 -0.22555509007322797
1606 1606 0.49663210866658813
1607 1606 -0.22968883457078407
1606 1607 -0.2296888345707841
1607 1607 0.5066127385469921
1608 1607 0.22644789986910197
1607 1608 0.22644789986910197
1608 1608 0.501545792952123
1609 1608 0.2280573758282451
1608 1609 0.22805737582824515
1609 1609 0.4931011618656118
1610 1609 0.23299309673497307
1609 1610 0.23299309673497334
1610 1610 0.49915555499610875
1611 1610 -0.22684546831056757
1610 1611 -0.2268454683105679
1611 1611 0.49789255930623827
1612 1611 -0.2299136710614861
1611 1612 -0.22991367106148625
1612 1612 0.49275611977028094
1613 1612 0.22535048478309397
1612 1613 0.22535048478309394
1613 1613 0.49555506851141307
1614 1613 0.22800678103859887
1613 1614 0.22800678103859887
1614 1614 0.502540306781937
1615 1614 -0.23148223197259454
1614 1615 -0.2314822319725947
1615 1615 0.5039062967139113
1616 1615 0.22396037579554615
1615 1616 0.22396037579554626
1616 1616 0.4985394059237762
1617 1616 0.22950786322230435
1616 1617 0.22950786322230443
1617 1617 0.5074351028549621
1618 1617 -0.22556394441882258
1617 1618 -0.22556394441882255
1618 1618 0.4990134739597677
1619 1618 -0.22883845675884465
1618 1619 -0.22883845675884465
1619 1619 0.49680305891734294
1620 1619 -0.22768124530976303
1619 1620 -0.22768124530976291
1620 1620 0.5026556259752194
1621 1620 -0.2305016183283884
1620 1621 -0.23050161832838842
1621 1621 0.49623841512773803
1622 1621 -0.22586454224640937
1621 1622 -0.22586454224640945
1622 1622 0.5028142188461286
1623 1622 0.23733405774542626
1622 1623 0.23733405774542607
1623 1623 0.5058611655577538
1624 1623 -0.22732144417207878
1623 1624 -0.2273214441720791
1624 1624 0.49719554546328354
1625 1624 -0.22591631962734474
1624 1625 -0.22591631962734476
1625 1625 0.49865013368974903
1626 1625 -0.2263451146896255
1625 1626 -0.22634511468962554
1626 1626 0.49443784554480397
1627 1626 0.2298803833364386
1626 1627 0.2298803833364388
1627 1627 0.48932574341934815
1628 1627 -0.22792910155815144
1627 1628 -0.22792910155815138
1628 1628 0.517863592517831
1629 1628 0.22828326774761382
1628 1629 0.22828326774761382
1629 1629 0.4878746726876273
1630 1629 0.22862680373026947
1629 1630 0.22862680373026945
1630 1630 0.5073100738957512
1631 1630 -0.2318346720853216
1630 1631 -0.23183467208532152
1631 1631 0.5020901352337588
1632 1631 0.22657072980874887
1631 1632 0.22657072980874904
1632 1632 0.49641043330078516
1633 1632 -0.23274785086676522
1632 1633 -0.2327478508667653
1633 1633 0.49519844504901195
1634 1633 0.22871264142842418
1633 1634 0.22871264142842423
1634 1634 0.5078234019653138
1635 1634 0.2284521866935203
1634 1635 0.2284521866935202
1635 1635 0.49579982067111994
1636 1635 0.22899112944897967
1635 1636 0.22899112944897976
1636 1636 0.49770246211791824
1637 1636 -0.22592893198521757
1636 1637 -0.22592893198521766
1637 1637 0.5009171480357266
1638 1637 0.22860771876332328
1637 1638 0.22860771876332323
1638 1638 0.5109038426345613
1639 1638 -0.22916814170069014
1638 1639 -0.2291681417006899
1639 1639 0.5062417591000603
1640 1639 0.22633543487080182
1639 1640 0.22633543487080207
1640 1640 0.49270513462557225
1641 1640 0.2281477397819597
1640 1641 0.22814773978195965
1641 1641 0.5056352750640015
1642 1641 -0.22590296395072978
1641 1642 -0.2259029639507297
1642 1642 0.5024088232606962
1643 1642 -0.22815636448191692
1642 1643 -0.2281563644819169
1643 1643 0.4924755717113151
1644 1643 -0.22904272611977244
1643 1644 -0.2290427261197722
1644 1644 0.5125093955573342
1645 1644 -0.22923986461934956
1644 1645 -0.22923986461934953
1645 1645 0.5045965379573963
1646 1645 0.23172508142837242
1645 1646 0.2317250814283725
1646 1646 0.4982091368253826
1647 1646 -0.22899725263332904
1646 1647 -0.22899725263332915
1647 1647 0.502595327395624
1648 1647 0.22272302680434114
1647 1648 0.22272302680434097
1648 1648 0.5016409340009554
1649 1648 0.22955572092882703
1648 1649 0.22955572092882706
1649 1649 0.49776134842827285
1650 1649 0.2273809538660047
1649 1650 0.22738095386600474
1650 1650 0.5074330995930207
1651 1650 0.22622372953220798
1650 1651 0.22622372953220785
1651 1651 0.4924870471569707
1652 1651 -0.2296395053137761
1651 1652 -0.22963950531377586
1652 1652 0.5046450094218315
1653 1652 0.2323219219657959
1652 1653 0.232321921965796
1653 1653 0.5025293685024391
1654 1653 -0.2304529167801031
1653 1654 -0.23045291678010296
1654 1654 0.5021016561468151
1655 1654 0.2287280916182028
1654 1655 0.22872809161820262
1655 1655 0.5086073507946502
1656 1655 0.2280887646251559
1655 1656 0.22808876462515623
1656 1656 0.4979055781878356
1657 1656 -0.22342384537477833
1656 1657 -0.22342384537477847
1657 1657 0.48897903473109594
1658 1657 0.23278391316181138
1657 1658 0.2327839131618113
1658 1658 0.5038391145628717
1659 1658 0.22861159776150128
1658 1659 0.2286115977615014
1659 1659 0.5007598236091257
1660 1659 0.2229854671608634
1659 1660 0.22298546716086334
1660 1660 0.49302849568621365
1661 1660 0.22357726863059482
1660 1661 0.22357726863059482
1661 1661 0.5001929269716514
1662 1661 0.2283527680481361
1661 1662 0.22835276804813603
1662 1662 0.4987747374969394
1663 1662 0.22779035743091788
1662 1663 0.22779035743091788
1663 1663 0.4995598125644759
1664 1663 0.22156270818197776
1663 1664 0.2215627081819778
1664 1664 0.5017038842771758
1665 1664 -0.22975845367442094
1664 1665 -0.22975845367442094
1665 1665 0.49818582772646547
1666 1665 -0.22905793546672507
1665 1666 -0.2290579354667252
1666 1666 0.4962815157984095
1667 1666 -0.2249860038977051
1666 1667 -0.22498600389770515
1667 1667 0.5100323240103881
1668 1667 0.23135165566810648
1667 1668 0.2313516556681068
1668 1668 0.5083114960202274
1669 1668 -0.22553230147255848
1668 1669 -0.22553230147255846
1669 1669 0.4960955646906795
1670 1669 0.22617336961065695
1669 1670 0.22617336961065682
1670 1670 0.49898779883491406
1671 1670 -0.22816787717450643
1670 1671 -0.22816787717450632
1671 1671 0.4992354892797084
1672 1671 0.22833565106035442
1671 1672 0.2283356510603541
1672 1672 0.4967125900574133
1673 1672 0.22809426405329064
1672 1673 0.22809426405329064
1673 1673 0.5014450653957866
1674 1673 0.22572388405414154
1673 1674 0.22572388405414148
1674 1674 0.49038978735274474
1675 1674 -0.2266602835471214
1674 1675 -0.22666028354712134
1675 1675 0.5005898064454344
1676 1675 -0.22680631808374185
1675 1676 -0.22680631808374166
1676 1676 0.5000984963085179
1677 1676 -0.22743679973916953
1676 1677 -0.2274367997391695
1677 1677 0.4974754529932632
1678 1677 0.22568993648130925
1677 1678 0.2256899364813092
1678 1678 0.5013741498808846
1679 1678 -0.22841994514900005
1678 1679 -0.22841994514900046
1679 1679 0.5112308242430388
1680 1679 -0.22515287731031403
1679 1680 -0.22515287731031408
1680 1680 0.4933235686585991
1681 1680 0.22588569518829424
1680 1681 0.22588569518829432
1681 1681 0.5038721045937873
1682 1681 0.22294786437904215
1681 1682 0.22294786437904215
1682 1682 0.5107043468184512
1683 1682 -0.22918297805834867
1682 1683 -0.22918297805834872
1683 1683 0.4970764378432359
1684 1683 -0.2311011199209649
1683 1684 -0.23110111992096494
1684 1684 0.49803166040165897
1685 1684 -0.2260470256448187
1684 1685 -0.22604702564481863
1685 1685 0.4959154556616563
1686 1685 -0.22791670540854067
1685 1686 -0.2279167054085406
1686 1686 0.5004348841703015
1687 1686 -0.2264866795334336
1686 1687 -0.22648667953343346
1687 1687 0.5020416719214161
1688 1687 -0.22671048693079277
1687 1688 -0.22671048693079268
1688 1688 0.5015681144988369
1689 1688 0.22498172679759548
1688 1689 0.22498172679759545
1689 1689 0.4997946735743912
1690 1689 -0.22743087344655497
1689 1690 -0.227430873446555
1690 1690 0.5040961809070722
1691 1690 0.22415840572599843
1690 1691 0.22415840572599832
1691 1691 0.4982622476988103
1692 1691 0.22853619342124068
1691 1692 0.22853619342124065
1692 1692 0.5024045617433279
1693 1692 0.22553528122210187
1692 1693 0.2255352812221019
1693 1693 0.49355160050717356
1694 1693 0.2288247822461778
1693 1694 0.2288247822461777
1694 1694 0.5013805382886825
1695 1694 0.22963596599228606
1694 1695 0.22963596599228606
1695 1695 0.49730217433871876
1696 1695 -0.2276934774851508
1695 1696 -0.22769347748515056
1696 1696 0.4971560487081837
1697 1696 0.2251317326937589
1696 1697 0.2251317326937589
1697 1697 0.5106841471082411
1698 1697 0.2265649836131875
1697 1698 0.22656498361318744
1698 1698 0.4914041932274276
1699 1698 0.22693284599290828
1698 1699 0.2269328459929081
1699 1699 0.5099886787162786
1700 1699 0.22772739349485688
1699 1700 0.227727393494857
1700 1700 0.49470012089459364
1701 1700 -0.2296089303141521
1700 1701 -0.22960893031415208
1701 1701 0.49562071275686725
1702 1701 -0.22209999159872998
1701 1702 -0.22209999159873
1702 1702 0.49571505578197395
1703 1702 0.2288317954501439
1702 1703 0.22883179545014395
1703 1703 0.5060743746041151
1704 1703 -0.22464153824425245
1703 1704 -0.22464153824425231
1704 1704 0.5016301727196368
1705 1704 -0.22425581906710043
1704 1705 -0.2242558190671004
1705 1705 0.4911774059893537
1706 1705 -0.22549116843202527
1705 1706 -0.22549116843202538
1706 1706 0.5048869499601099
1707 1706 0.22850321376948976
1706 1707 0.22850321376948982
1707 1707 0.5027526447314812
1708 1707 -0.2265943475459493
1707 1708 -0.22659434754594943
1708 1708 0.5008286488512099
1709 1708 0.22514497362674746
1708 1709 0.22514497362674724
1709 1709 0.4982411244456475
1710 1709 0.225700292981388
1709 1710 0.22570029298138802
1710 1710 0.5092583628590787
1711 1710 -0.224486136508276
1710 1711 -0.22448613650827604
1711 1711 0.4931619927386664
1712 1711 0.22513870073126077
1711 1712 0.22513870073126085
1712 1712 0.49617956221537857
1713 1712 -0.22384714263527444
1712 1713 -0.2238471426352744
1713 1713 0.5000090119085745
1714 1713 0.22527887926377757
1713 1714 0.2252788792637775
1714 1714 0.49741666860018646
1715 1714 0.22540812145160802
1714 1715 0.22540812145160824
1715 1715 0.5015932418325276
1716 1715 0.2246018581239817
1715 1716 0.22460185812398195
1716 1716 0.5076038415934522
1717 1716 -0.22954626505274986
1716 1717 -0.2295462650527497
1717 1717 0.4971675777155329
1718 1717 0.22603576712607348
1717 1718 0.22603576712607357
1718 1718 0.5073168112134666
1719 1718 -0.22230925500314824
1718 1719 -0.22230925500314808
1719 1719 0.4978808617580098
1720 1719 0.22663803634906313
1719 1720 0.22663803634906327
1720 1720 0.5140162145535796
1721 1720 -0.22526676781099836
1720 1721 -0.2252667678109984
1721 1721 0.49247838710718017
1722 1721 0.2246812170459369
1721 1722 0.22468121704593694
1722 1722 0.5012561552993529
1723 1722 -0.2279035229457144
1722 1723 -0.2279035229457142
1723 1723 0.49973018342967224
1724 1723 0.22537958490088536
1723 1724 0.2253795849008855
1724 1724 0.49127418815416957
1725 1724 -0.2247030739698108
1724 1725 -0.2247030739698108
1725 1725 0.49855840785443445
1726 1725 -0.22913173172915066
1725 1726 -0.22913173172915058
1726 1726 0.5010073305427071
1727 1726 0.22318645923046343
1726 1727 0.22318645923046365
1727 1727 0.4934920776794861
1728 1727 -0.2250581151290643
1727 1728 -0.22505811512906432
1728 1728 0.504914494058001
1729 1728 -0.22509994112487086
1728 1729 -0.2250999411248708
1729 1729 0.48522682758091285
1730 1729 0.22707036595073243
1729 1730 0.2270703659507323
1730 1730 0.520005170676967
1731 1730 0.22406588563110302
1730 1731 0.2240658856311031
1731 1731 0.4949794928477765
1732 1731 -0.22599695635662653
1731 1732 -0.22599695635662642
1732 1732 0.4924809118909577
1733 1732 -0.22189501918178875
1732 1733 -0.22189501918178867
1733 1733 0.5003899679145728
1734 1733 0.22511541016117265
1733 1734 0.2251154101611726
1734 1734 0.5017038614703788
1735 1734 -0.22482257172809048
1734 1735 -0.22482257172809011
1735 1735 0.5029813784275003
1736 1735 -0.22656765207828997
1735 1736 -0.22656765207829005
1736 1736 0.4943099871909896
1737 1736 0.22786352015925398
1736 1737 0.2278635201592539
1737 1737 0.5013492671503416
1738 1737 -0.22183868478449176
1737 1738 -0.22183868478449176
1738 1738 0.5009891957357283
1739 1738 -0.23060321000887637
1738 1739 -0.23060321000887618
1739 1739 0.49231345697889345
1740 1739 0.22202622307480338
1739 1740 0.22202622307480363
1740 1740 0.5044288437652199
1741 1740 0.2289343249118601
1740 1741 0.22893432491185994
1741 1741 0.5015846668103261
1742 1741 -0.22277856036148538
1741 1742 -0.22277856036148555
1742 1742 0.5032851190970913
1743 1742 0.22508012504919436
1742 1743 0.22508012504919445
1743 1743 0.5000552135673993
1744 1743 0.22417729339772952
1743 1744 0.22417729339772943
1744 1744 0.49701967996335067
1745 1744 -0.22205681502991234
1744 1745 -0.2220568150299123
1745 1745 0.49916689934140146
1746 1745 -0.22286378965585985
1745 1746 -0.22286378965585993
1746 1746 0.4968007706316512
1747 1746 0.22342639303084358
1746 1747 0.22342639303084358
1747 1747 0.5035162949433645
1748 1747 -0.22765668900112732
1747 1748 -0.2276566890011273
1748 1748 0.49999120667818747
1749 1748 -0.22479255387384064
1748 1749 -0.22479255387384067
1749 1749 0.5103835420961493
1750 1749 0.22491406645920517
1749 1750 0.22491406645920514
1750 1750 0.49394855530286264
1751 1750 0.22558001097167632
1750 1751 0.22558001097167638
1751 1751 0.5032820450731215
1752 1751 0.22674441782604846
1751 1752 0.22674441782604823
1752 1752 0.5007603068761188
1753 1752 -0.2214938123316602
1752 1753 -0.22149381233166024
1753 1753 0.4951078527300468
1754 1753 -0.22144988778223668
1753 1754 -0.2214498877822367
1754 1754 0.5085045690374292
1755 1754 0.22671566218769204
1754 1755 0.226715662187692
1755 1755 0.4952159013472758
1756 1755 -0.22579741603720485
1755 1756 -0.22579741603720474
1756 1756 0.503819119343702
1757 1756 -0.2264510171427837
1756 1757 -0.2264510171427836
1757 1757 0.4939888821956461
1758 1757 0.22438646130057108
1757 1758 0.22438646130057122
1758 1758 0.49914756654520215
1759 1758 -0.2270383571334633
1758 1759 -0.22703835713346315
1759 1759 0.49565936518205217
1760 1759 0.22132970732291182
1759 1760 0.22132970732291168
1760 1760 0.5059766718841103
1761 1760 0.2254360618861594
1760 1761 0.22543606188615947
1761 1761 0.4934758935539802
1762 1761 -0.22164183291400777
1761 1762 -0.22164183291400774
1762 1762 0.4972394888576257
1763 1762 -0.22481299939715646
1762 1763 -0.22481299939715657
1763 1763 0.5019773308791207
1764 1763 0.22331958790719464
1763 1764 0.22331958790719458
1764 1764 0.5034560952554102
1765 1764 -0.2257183410454932
1764 1765 -0.22571834104549318
1765 1765 0.49324342726181325
1766 1765 -0.2248830269451362
1765 1766 -0.22488302694513626
1766 1766 0.49871804873157954
1767 1766 0.2237405685548111
1766 1767 0.22374056855481111
1767 1767 0.502552901595053
1768 1767 0.22082448670204785
1767 1768 0.22082448670204757
1768 1768 0.4947363918772092
1769 1768 0.2267780860875454
1768 1769 0.22677808608754535
1769 1769 0.5037614213710595
1770 1769 -0.22456553148645111
1769 1770 -0.22456553148645114
1770 1770 0.4981706251776656
1771 1770 0.23103884827995624
1770 1771 0.23103884827995627
1771 1771 0.5055892789062808
1772 1771 -0.2238292837320949
1771 1772 -0.22382928373209512
1772 1772 0.49446143359699724
1773 1772 0.22691278633348513
1772 1773 0.226912786333485
1773 1773 0.49949759937057003
1774 1773 -0.21942153048694704
1773 1774 -0.2194215304869469
1774 1774 0.49291066900796576
1775 1774 0.22453715941008193
1774 1775 0.22453715941008162
1775 1775 0.505726307732382
1776 1775 0.22894570676806827
1775 1776 0.2289457067680684
1776 1776 0.4908923812911007
1777 1776 0.2239095495377527
1776 1777 0.2239095495377527
1777 1777 0.502853118494524
1778 1777 -0.22384215925147957
1777 1778 -0.2238421592514796
1778 1778 0.49980454891546017
1779 1778 0.22627137524774468
1778 1779 0.22627137524774446
1779 1779 0.5043051263898547
1780 1779 -0.22436532942645174
1779 1780 -0.22436532942645174
1780 1780 0.49909945998505745
1781 1780 -0.2213856870901739
1780 1781 -0.22138568709017395
1781 1781 0.5045800767369877
1782 1781 0.2266988852314663
1781 1782 0.22669888523146622
1782 1782 0.4979510184440111
1783 1782 0.22128290924551242
1782 1783 0.22128290924551225
1783 1783 0.5065156031985578
1784 1783 -0.225414599541651
1783 1784 -0.22541459954165097
1784 1784 0.49569679727486965
1785 1784 -0.22730034979161104
1784 1785 -0.22730034979161104
1785 1785 0.5009183088021631
1786 1785 -0.2215440976490757
1785 1786 -0.2215440976490758
1786 1786 0.5057359843938061
1787 1786 0.22242277328811008
1786 1787 0.22242277328811003
1787 1787 0.5020508095884194
1788 1787 -0.2242850744221503
1787 1788 -0.2242850744221506
1788 1788 0.4991948939331011
1789 1788 0.21942362252274528
1788 1789 0.21942362252274528
1789 1789 0.5026332489088681
1790 1789 -0.22325098149709074
1789 1790 -0.2232509814970908
1790 1790 0.5006046962460068
1791 1790 -0.22305296901506133
1790 1791 -0.22305296901506108
1791 1791 0.5020435209806913
1792 1791 -0.2244731063641447
1791 1792 -0.2244731063641447
1792 1792 0.49759915746036504
1793 1792 0.22131951874417002
1792 1793 0.2213195187441701
1793 1793 0.496282394363493
1794 1793 0.2183403094042635
1793 1794 0.2183403094042635
1794 1794 0.5003251457693568
1795 1794 -0.22683161869162533
1794 1795 -0.22683161869162527
1795 1795 0.500213119562382
1796 1795 -0.2265277906925147
1795 1796 -0.22652779069251447
1796 1796 0.5022572175063867
1797 1796 0.2234610980623268
1796 1797 0.22346109806232692
1797 1797 0.4998439000810515
1798 1797 -0.224280292066336
1797 1798 -0.22428029206633604
1798 1798 0.508409703999938
1799 1798 0.22440882790880531
1798 1799 0.2244088279088054
1799 1799 0.4973431450429133
1800 1799 0.21963077020698482
1799 1800 0.21963077020698502
1800 1800 0.5022360922629285
1801 1800 0.22627467020694333
1800 1801 0.2262746702069433
1801 1801 0.49368269367186385
1802 1801 -0.22655904517124406
1801 1802 -0.22655904517124414
1802 1802 0.5075520508104938
1803 1802 0.22314995138439078
1802 1803 0.2231499513843907
1803 1803 0.5009124736671198
1804 1803 -0.22146065986155258
1803 1804 -0.22146065986155256
1804 1804 0.493113526433979
1805 1804 0.22474252656868363
1804 1805 0.22474252656868368
1805 1805 0.508081156200747
1806 1805 -0.22889013301440483
1805 1806 -0.22889013301440483
1806 1806 0.4962799197471584
1807 1806 -0.22053414136344182
1806 1807 -0.2205341413634419
1807 1807 0.5030898848973763
1808 1807 -0.22568556946785465
1807 1808 -0.22568556946785454
1808 1808 0.49406360434136526
1809 1808 0.21962281093779842
1808 1809 0.21962281093779845
1809 1809 0.5009429735392202
1810 1809 0.22210072857976865
1809 1810 0.2221007285797688
1810 1810 0.49849652409696243
1811 1810 -0.22290209236539693
1810 1811 -0.22290209236539704
1811 1811 0.4993719579985765
1812 1811 -0.22279712780967612
1811 1812 -0.22279712780967592
1812 1812 0.49113359309831706
1813 1812 0.22384278123441095
1812 1813 0.22384278123441095
1813 1813 0.5006190415120372
1814 1813 0.22149066977600484
1813 1814 0.22149066977600493
1814 1814 0.49999346009941703
1815 1814 0.22311119501024082
1814 1815 0.22311119501024093
1815 1815 0.5044876343473244
1816 1815 0.2238461237866683
1815 1816 0.22384612378666813
1816 1816 0.49709245985379424
1817 1816 0.22394025868406434
1816 1817 0.22394025868406436
1817 1817 0.5049036452899274
1818 1817 -0.21727431594474883
1817 1818 -0.21727431594474872
1818 1818 0.4996567754824424
1819 1818 -0.22368373103605807
1818 1819 -0.2236837310360581
1819 1819 0.4991851126625805
1820 1819 -0.22006317925170096
1819 1820 -0.220063179251701
1820 1820 0.5061020210201038
1821 1820 -0.2228658351137908
1820 1821 -0.2228658351137908
1821 1821 0.5014483900059756
1822 1821 0.2208266624224202
1821 1822 0.22082666242242005
1822 1822 0.4988733580530876
1823 1822 0.22650647211797936
1822 1823 0.22650647211797914
1823 1823 0.5005978666764215
1824 1823 -0.22242467170972244
1823 1824 -0.22242467170972247
1824 1824 0.49988941122309694
1825 1824 0.21840547931673424
1824 1825 0.2184054793167342
1825 1825 0.4922611385793193
1826 1825 -0.2219071660845013
1825 1826 -0.2219071660845013
1826 1826 0.4938917766631331
1827 1826 -0.221494672280423
1826 1827 -0.22149467228042316
1827 1827 0.5082330137733476
1828 1827 0.22159761203167075
1827 1828 0.22159761203167072
1828 1828 0.4965556592658715
1829 1828 -0.22160206453654555
1828 1829 -0.22160206453654566
1829 1829 0.4995070029091054
1830 1829 0.2258428550286679
1829 1830 0.22584285502866774
1830 1830 0.4981393947407496
1831 1830 -0.22088688075627752
1830 1831 -0.22088688075627738
1831 1831 0.49733996649913004
1832 1831 0.22419463148538568
1831 1832 0.22419463148538565
1832 1832 0.5009109240864309
1833 1832 0.2237475117410178
1832 1833 0.22374751174101787
1833 1833 0.4978549625299763
1834 1833 -0.22428637723516476
1833 1834 -0.22428637723516484
1834 1834 0.5030571039291476
1835 1834 0.21845037589056154
1834 1835 0.21845037589056138
1835 1835 0.4993899103121912
1836 1835 -0.22181794854091835
1835 1836 -0.2218179485409185
1836 1836 0.49757377979325906
1837 1836 0.22084371304495606
1836 1837 0.2208437130449561
1837 1837 0.5068011777940706
1838 1837 0.2230002635665724
1837 1838 0.22300026356657238
1838 1838 0.4994396754657636
1839 1838 -0.21794000459946375
1838 1839 -0.21794000459946358
1839 1839 0.4975405282226216
1840 1839 0.22213636753556365
1839 1840 0.2221363675355636
1840 1840 0.4997007465419322
1841 1840 -0.22202485857870102
1840 1841 -0.2220248585787008
1841 1841 0.5026904037594593
1842 1841 0.2219637776579009
1841 1842 0.22196377765790093
1842 1842 0.4989781990527775
1843 1842 0.2233220359396925
1842 1843 0.2233220359396924
1843 1843 0.4963605527986522
1844 1843 0.22266097160087353
1843 1844 0.22266097160087342
1844 1844 0.49492224593591705
1845 1844 -0.22506518380127935
1844 1845 -0.22506518380127938
1845 1845 0.5014153201375945
1846 1845 -0.22570770566553194
1845 1846 -0.22570770566553194
1846 1846 0.4991490147838342
1847 1846 0.21807494488131776
1846 1847 0.21807494488131776
1847 1847 0.5011837274986585
1848 1847 0.22149049022720713
1847 1848 0.22149049022720704
1848 1848 0.5048175567019201
1849 1848 -0.22584407551211727
1848 1849 -0.22584407551211724
1849 1849 0.49469931460874705
1850 1849 0.22101037624734401
1849 1850 0.2210103762473441
1850 1850 0.5072905151135951
1851 1850 0.21986824372817132
1850 1851 0.21986824372817118
1851 1851 0.49775122122924753
1852 1851 0.2230900277954928
1851 1852 0.22309002779549306
1852 1852 0.4925369857430327
1853 1852 -0.22156582043909084
1852 1853 -0.22156582043909095
1853 1853 0.4989113102132066
1854 1853 0.2207187313849189
1853 1854 0.220718731384919
1854 1854 0.5036815318258899
1855 1854 0.22235064699960091
1854 1855 0.22235064699960103
1855 1855 0.5069415198107249
1856 1855 0.22097776613385717
1855 1856 0.22097776613385703
1856 1856 0.5005009316572384
1857 1856 -0.2220583336669182
1856 1857 -0.22205833366691813
1857 1857 0.503685980389061
1858 1857 0.22185678171554093
1857 1858 0.22185678171554096
1858 1858 0.5078656155136156
1859 1858 -0.22091459193697058
1858 1859 -0.22091459193697044
1859 1859 0.504973072948207
1860 1859 0.2178425593077915
1859 1860 0.2178425593077915
1860 1860 0.5016871993377418
1861 1860 0.22083904792530257
1860 1861 0.22083904792530262
1861 1861 0.5048056355489644
1862 1861 0.22573677971787656
1861 1862 0.22573677971787662
1862 1862 0.4955199377973471
1863 1862 -0.21896647459599408
1862 1863 -0.218966474595994
1863 1863 0.5048081951523805
1864 1863 0.22237927641226177
1863 1864 0.2223792764122617
1864 1864 0.4989131997424982
1865 1864 0.2229067097551418
1864 1865 0.22290670975514187
1865 1865 0.5056884897777462
1866 1865 0.2187731046492384
1865 1866 0.2187731046492385
1866 1866 0.4935446828828818
1867 1866 -0.22626564654349002
1866 1867 -0.2262656465434899
1867 1867 0.49665213165258765
1868 1867 0.21868548309619243
1867 1868 0.2186854830961924
1868 1868 0.4972366612210971
1869 1868 -0.22294806807074743
1868 1869 -0.22294806807074752
1869 1869 0.5050743906916142
1870 1869 -0.22232188810339523
1869 1870 -0.2223218881033954
1870 1870 0.49520426780334875
1871 1870 0.2193220011639272
1870 1871 0.2193220011639273
1871 1871 0.5043261113009863
1872 1871 -0.21664242125341948
1871 1872 -0.2166424212534198
1872 1872 0.5015209824988098
1873 1872 -0.21925492895118037
1872 1873 -0.21925492895118037
1873 1873 0.503990613111482
1874 1873 0.22101604966069593
1873 1874 0.22101604966069588
1874 1874 0.5094316899721221
1875 1874 0.22214134794433849
1874 1875 0.22214134794433868
1875 1875 0.49492564691826274
1876 1875 0.2201128310972715
1875 1876 0.22011283109727153
1876 1876 0.4979015081801783
1877 1876 -0.22224398070855628
1876 1877 -0.22224398070855628
1877 1877 0.4963639443190826
1878 1877 0.21902090876032296
1877 1878 0.21902090876032307
1878 1878 0.49774943042304554
1879 1878 -0.22500872705357575
1878 1879 -0.2250087270535759
1879 1879 0.5025545358491897
1880 1879 -0.22021967844801563
1879 1880 -0.22021967844801574
1880 1880 0.4947388033351279
1881 1880 -0.22166193756351874
1880 1881 -0.2216619375635187
1881 1881 0.495915556366063
1882 1881 -0.21672658966958888
1881 1882 -0.21672658966958883
1882 1882 0.5003070923549757
1883 1882 0.22295530563887833
1882 1883 0.22295530563887847
1883 1883 0.48761360898854944
1884 1883 0.21855323944690308
1883 1884 0.2185532394469033
1884 1884 0.4990127436611739
1885 1884 -0.21894794022901054
1884 1885 -0.2189479402290106
1885 1885 0.5034377833006367
1886 1885 0.21594415269094808
1885 1886 0.21594415269094808
1886 1886 0.5051396047440562
1887 1886 -0.22011776252949353
1886 1887 -0.22011776252949378
1887 1887 0.49828217016477877
1888 1887 0.22013746194047207
1887 1888 0.22013746194047182
1888 1888 0.4921834116133474
1889 1888 -0.22015503609139833
1888 1889 -0.22015503609139842
1889 1889 0.49667610084687985
1890 1889 -0.21642148609888479
1889 1890 -0.21642148609888473
1890 1890 0.5031002156773237
1891 1890 0.2214091374196538
1890 1891 0.22140913741965385
1891 1891 0.50409227205351
1892 1891 0.2202455822003564
1891 1892 0.22024558220035692
1892 1892 0.49475818834109553
1893 1892 0.2165891272912807
1892 1893 0.2165891272912808
1893 1893 0.5037462198673821
1894 1893 -0.2186663760518388
1893 1894 -0.2186663760518387
1894 1894 0.502760899603043
1895 1894 -0.219017998275712
1894 1895 -0.21901799827571186
1895 1895 0.5048024491638012
1896 1895 0.22057231392580992
1895 1896 0.22057231392580978
1896 1896 0.4957885149153096
1897 1896 0.22114781034521983
1896 1897 0.22114781034521971
1897 1897 0.49850253328756755
1898 1897 0.22197697637442157
1897 1898 0.22197697637442154
1898 1898 0.49517495782855214
1899 1898 0.21559221499832323
1898 1899 0.2155922149983232
1899 1899 0.4958098078843623
1900 1899 0.2211979094465191
1899 1900 0.22119790944651901
1900 1900 0.49600608647978034
1901 1900 -0.21857611591221504
1900 1901 -0.2185761159122149
1901 1901 0.49530856860826533
1902 1901 -0.2214674906512653
1901 1902 -0.22146749065126536
1902 1902 0.49858945721358966
1903 1902 -0.22187589700312088
1902 1903 -0.22187589700312085
1903 1903 0.512655861405194
1904 1903 -0.22062709489429466
1903 1904 -0.22062709489429494
1904 1904 0.49795749929278843
1905 1904 0.21836618137110572
1904 1905 0.21836618137110586
1905 1905 0.4978514894263648
1906 1905 0.22135490070677646
1905 1906 0.22135490070677646
1906 1906 0.5033313965761396
1907 1906 0.22105177318872887
1906 1907 0.22105177318872868
1907 1907 0.49755252706197456
1908 1907 0.21740095790720562
1907 1908 0.21740095790720565
1908 1908 0.49627346929138483
1909 1908 -0.21816897514344163
1908 1909 -0.21816897514344152
1909 1909 0.49998255467113484
1910 1909 0.21851560239218892
1909 1910 0.21851560239218878
1910 1910 0.5025882133812902
1911 1910 0.2211073813179045
1910 1911 0.22110738131790425
1911 1911 0.4868957885695576
1912 1911 0.21902000746492134
1911 1912 0.21902000746492134
1912 1912 0.5028742084512907
1913 1912 -0.2212539987242509
1912 1913 -0.22125399872425086
1913 1913 0.5008749000773322
1914 1913 -0.219670685130593
1913 1914 -0.21967068513059307
1914 1914 0.5020391325213639
1915 1914 0.221495392369332
1914 1915 0.22149539236933202
1915 1915 0.49859264020491273
1916 1915 0.2204910576250276
1915 1916 0.2204910576250272
1916 1916 0.5025287768840085
1917 1916 -0.2218801945833947
1916 1917 -0.22188019458339447
1917 1917 0.4991988577269401
1918 1917 0.2145307259015183
1917 1918 0.21453072590151828
1918 1918 0.48875107131834816
1919 1918 0.22094213295261328
1918 1919 0.2209421329526132
1919 1919 0.5043493754625341
1920 1919 -0.22055505653239857
1919 1920 -0.2205550565323988
1920 1920 0.49396326151349246
1921 1920 -0.22349913388108186
1920 1921 -0.22349913388108178
1921 1921 0.507607134081503
1922 1921 0.21723000258168504
1921 1922 0.21723000258168498
1922 1922 0.4969578324497056
1923 1922 -0.21717820373901925
1922 1923 -0.2171782037390193
1923 1923 0.5049015859183633
1924 1923 0.21765585920526453
1923 1924 0.21765585920526445
1924 1924 0.4918345567165194
1925 1924 0.22335985861539576
1924 1925 0.22335985861539584
1925 1925 0.4998197425244365
1926 1925 -0.2146197773489524
1925 1926 -0.21461977734895243
1926 1926 0.5016240087677153
1927 1926 -0.22122127401063826
1926 1927 -0.22122127401063835
1927 1927 0.5072624391107847
1928 1927 -0.22029487091303376
1927 1928 -0.22029487091303362
1928 1928 0.5012464257365987
1929 1928 -0.224711334006304
1928 1929 -0.22471133400630414
1929 1929 0.5055491038333229
1930 1929 -0.21706238445530554
1929 1930 -0.2170623844553057
1930 1930 0.49815537262364507
1931 1930 0.22164261273758984
1930 1931 0.2216426127375899
1931 1931 0.5058469595714691
1932 1931 0.21989147723869
1931 1932 0.21989147723869007
1932 1932 0.4992740035892028
1933 1932 0.21875917286103866
1932 1933 0.21875917286103866
1933 1933 0.5026765626129829
1934 1933 0.218178126510809
1933 1934 0.21817812651080903
1934 1934 0.505445102043062
1935 1934 -0.22263041360499325
1934 1935 -0.22263041360499322
1935 1935 0.5075806785789294
1936 1935 0.21903673605806553
1935 1936 0.21903673605806545
1936 1936 0.5007999831413066
1937 1936 -0.2200114046089512
1936 1937 -0.22001140460895116
1937 1937 0.49230437667855154
1938 1937 -0.22252219725865896
1937 1938 -0.222522197258659
1938 1938 0.5106173261347046
1939 1938 0.21616714111643345
1938 1939 0.21616714111643368
1939 1939 0.4951611188419148
1940 1939 0.2195386628409145
1939 1940 0.2195386628409145
1940 1940 0.5050193306089457
1941 1940 0.21456230051085187
1940 1941 0.2145623005108519
1941 1941 0.5012453662641918
1942 1941 -0.22257838576263267
1941 1942 -0.2225783857626325
1942 1942 0.5006829899308656
1943 1942 -0.21440684904667284
1942 1943 -0.21440684904667273
1943 1943 0.49140513226652477
1944 1943 -0.22302471087279827
1943 1944 -0.2230247108727981
1944 1944 0.50615906375479
1945 1944 0.21906937426487463
1944 1945 0.2190693742648747
1945 1945 0.5027653580739869
1946 1945 -0.22127383717009594
1945 1946 -0.22127383717009602
1946 1946 0.5061882007677667
1947 1946 0.2191962697710226
1946 1947 0.21919626977102274
1947 1947 0.4915486652423623
1948 1947 0.22087645156185404
1947 1948 0.22087645156185412
1948 1948 0.49791372609896367
1949 1948 0.22198299628277976
1948 1949 0.22198299628277965
1949 1949 0.49785783180958204
1950 1949 -0.21555298146643798
1949 1950 -0.21555298146643795
1950 1950 0.5044227295583736
1951 1950 -0.2136971850179581
1950 1951 -0.2136971850179581
1951 1951 0.5016467836161433
1952 1951 -0.21879708753843655
1951 1952 -0.21879708753843638
1952 1952 0.5057548353291753
1953 1952 -0.2201945756933264
1952 1953 -0.22019457569332637
1953 1953 0.49901874746767894
1954 1953 0.21446446887477005
1953 1954 0.2144644688747702
1954 1954 0.5021204889408064
1955 1954 -0.21592598792422224
1954 1955 -0.21592598792422246
1955 1955 0.503620314858645
1956 1955 -0.21892026059920083
1955 1956 -0.21892026059920083
1956 1956 0.49554005890574854
1957 1956 0.2173944963314241
1956 1957 0.21739449633142413
1957 1957 0.5012169989379129
1958 1957 0.2163093003030835
1957 1958 0.21630930030308343
1958 1958 0.5040927066389267
1959 1958 0.21968648443196334
1958 1959 0.21968648443196348
1959 1959 0.4927508134373253
1960 1959 -0.2166780991193066
1959 1960 -0.2166780991193069
1960 1960 0.499485634116267
1961 1960 0.21968620693688626
1960 1961 0.21968620693688617
1961 1961 0.5058785663098029
1962 1961 0.21838671841871435
1961 1962 0.21838671841871435
1962 1962 0.49765852279847905
1963 1962 0.21536264228682767
1962 1963 0.21536264228682786
1963 1963 0.5002938068332414
1964 1963 -0.21759465510146747
1963 1964 -0.2175946551014677
1964 1964 0.5021926118592885
1965 1964 -0.21723111311564527
1964 1965 -0.21723111311564522
1965 1965 0.5073766132559598
1966 1965 -0.21748121256324435
1965 1966 -0.2174812125632445
1966 1966 0.4988054044109076
1967 1966 -0.21638799921194785
1966 1967 -0.2163879992119479
1967 1967 0.4957790442281122
1968 1967 0.21998311709868418
1967 1968 0.21998311709868418
1968 1968 0.4975810598378867
1969 1968 0.2206675877930636
1968 1969 0.22066758779306356
1969 1969 0.49578879739449244
1970 1969 -0.21687173366909573
1969 1970 -0.21687173366909582
1970 1970 0.5107107449523103
1971 1970 -0.21753702760823618
1970 1971 -0.2175370276082362
1971 1971 0.49519477912616633
1972 1971 -0.22198093813400166
1971 1972 -0.22198093813400183
1972 1972 0.5032892923990183
1973 1972 0.2164320796824393
1972 1973 0.2164320796824393
1973 1973 0.49825120376764026
1974 1973 -0.22057125717819703
1973 1974 -0.22057125717819703
1974 1974 0.49874708765985243
1975 1974 -0.21133357288768134
1974 1975 -0.21133357288768131
1975 1975 0.49678383035237533
1976 1975 0.2207623097941423
1975 1976 0.2207623097941423
1976 1976 0.501633016510792
1977 1976 0.2132129626854847
1976 1977 0.21321296268548462
1977 1977 0.5032535249974136
1978 1977 0.21826957267958694
1977 1978 0.21826957267958697
1978 1978 0.4999972173673425
1979 1978 -0.21651653051994438
1978 1979 -0.2165165305199441
1979 1979 0.49699686274480614
1980 1979 0.21492421271129047
1979 1980 0.21492421271129072
1980 1980 0.4987329285295461
1981 1980 -0.21728032816579865
1980 1981 -0.21728032816579862
1981 1981 0.5063210893541188
1982 1981 0.21307900030037233
1981 1982 0.21307900030037213
1982 1982 0.4890504688066665
1983 1982 0.21390758189652806
1982 1983 0.21390758189652814
1983 1983 0.4928160256526061
1984 1983 -0.21844580676927391
1983 1984 -0.21844580676927391
1984 1984 0.49086432035769856
1985 1984 0.21549565038805096
1984 1985 0.21549565038805094
1985 1985 0.5111151632156218
1986 1985 -0.21871724835257747
1985 1986 -0.21871724835257747
1986 1986 0.4968690944958989
1987 1986 -0.21648312822159815
1986 1987 -0.21648312822159824
1987 1987 0.4971460270993776
1988 1987 0.21586146668165943
1987 1988 0.21586146668165934
1988 1988 0.5027515627272425
1989 1988 0.21567794473417568
1988 1989 0.21567794473417562
1989 1989 0.5026047525369073
1990 1989 -0.21461943626136004
1989 1990 -0.21461943626135999
1990 1990 0.49517917073996365
1991 1990 0.21593930909181755
1990 1991 0.21593930909181752
1991 1991 0.5014663307485137
1992 1991 -0.21695396384068358
1991 1992 -0.21695396384068372
1992 1992 0.4964638267170207
1993 1992 -0.2104742486892518
1992 1993 -0.2104742486892518
1993 1993 0.5045065910166837
1994 1993 0.22057495776075658
1993 1994 0.22057495776075664
1994 1994 0.49602440294069605
1995 1994 -0.21565944522342623
1994 1995 -0.21565944522342612
1995 1995 0.5042536987977659
1996 1995 -0.21057406861932523
1995 1996 -0.21057406861932523
1996 1996 0.503583321673277
1997 1996 0.21801616318813236
1996 1997 0.21801616318813236
1997 1997 0.5008248155202255
1998 1997 0.21635190037483976
1997 1998 0.21635190037483978
1998 1998 0.5052890489241045
1999 1998 -0.21813995998274444
1998 1999 -0.2181399599827444
1999 1999 0.4986949955927986
2000 1999 0.21263015948998115
1999 2000 0.212630159489981
2000 2000 0.5028380350802768
2001 2000 -0.21443831363836052
2000 2001 -0.21443831363836033
2001 2001 0.4975012479438294
2002 2001 0.22009884098340915
2001 2002 0.2200988409834092
2002 2002 0.49936862440872454
2003 2002 -0.21624452412771974
2002 2003 -0.21624452412771986
2003 2003 0.49922821797422684
2004 2003 -0.21632639384353664
2003 2004 -0.21632639384353666
2004 2004 0.5114961276598469
2005 2004 -0.21747608590197187
2004 2005 -0.21747608590197195
2005 2005 0.5005943197012093
2006 2005 0.21615822952608854
2005 2006 0.2161582295260886
2006 2006 0.5004730195443204
2007 2006 -0.2136476377104874
2006 2007 -0.21364763771048742
2007 2007 0.4988990936309277
2008 2007 -0.22153500712250568
2007 2008 -0.22153500712250576
2008 2008 0.5022747009401505
2009 2008 -0.21444662333065223
2008 2009 -0.21444662333065206
2009 2009 0.49640461088251325
2010 2009 -0.21749238126449588
2009 2010 -0.2174923812644958
2010 2010 0.5052966131660946
2011 2010 0.21628062717257795
2010 2011 0.21628062717257787
2011 2011 0.5022713013958089
2012 2011 0.21329804578532685
2011 2012 0.21329804578532677
2012 2012 0.4947727532658186
2013 2012 0.21515747102831506
2012 2013 0.21515747102831503
2013 2013 0.4983504468986686
2014 2013 0.21729183420733716
2013 2014 0.21729183420733725
2014 2014 0.5086189716862681
2015 2014 0.21685164362082185
2014 2015 0.21685164362082185
2015 2015 0.48971805785888267
2016 2015 -0.21970383055774118
2015 2016 -0.2197038305577411
2016 2016 0.5127660698411864
2017 2016 0.21423034607916133
2016 2017 0.21423034607916136
2017 2017 0.49516747819653867
2018 2017 -0.21440945290300878
2017 2018 -0.21440945290300875
2018 2018 0.498089997740334
2019 2018 -0.2127784258220016
2018 2019 -0.2127784258220016
2019 2019 0.4959880111072298
2020 2019 -0.21442791721588145
2019 2020 -0.2144279172158814
2020 2020 0.5022421217146023
2021 2020 0.21789521290950253
2020 2021 0.21789521290950256
2021 2021 0.4928324654649888
2022 2021 0.21657008920369478
2021 2022 0.21657008920369483
2022 2022 0.5021778094387875
2023 2022 -0.21274761867166772
2022 2023 -0.2127476186716676
2023 2023 0.49169128266538636
2024 2023 0.2200609660194152
2023 2024 0.22006096601941522
2024 2024 0.4964311370828073
2025 2024 0.214608103108775
2024 2025 0.21460810310877496
2025 2025 0.5018709284548245
2026 2025 -0.21702249842030688
2025 2026 -0.21702249842030666
2026 2026 0.4893111153270497
2027 2026 0.21810716358722318
2026 2027 0.2181071635872233
2027 2027 0.5022909728909758
2028 2027 0.21662926577053032
2027 2028 0.21662926577053024
2028 2028 0.5008052683801846
2029 2028 -0.21447251419209257
2028 2029 -0.21447251419209248
2029 2029 0.5001399639807709
2030 2029 -0.21558095156472065
2029 2030 -0.21558095156472062
2030 2030 0.49456714556396597
2031 2030 0.21725153880127654
2030 2031 0.21725153880127637
2031 2031 0.5067436858286232
2032 2031 0.21896870958551595
2031 2032 0.21896870958551587
2032 2032 0.49141669235466384
2033 2032 0.2131717016127877
2032 2033 0.21317170161278776
2033 2033 0.5028676425137293
2034 2033 -0.21923302446251733
2033 2034 -0.21923302446251722
2034 2034 0.500223878353663
2035 2034 -0.215420203948196
2034 2035 -0.21542020394819594
2035 2035 0.4952731879041671
2036 2035 -0.21730014490604357
2035 2036 -0.21730014490604363
2036 2036 0.49673953321157127
2037 2036 -0.21515017429246072
2036 2037 -0.2151501742924606
2037 2037 0.4943714368742571
2038 2037 0.2171645347294425
2037 2038 0.2171645347294425
2038 2038 0.4933992910490031
2039 2038 0.21576284467611226
2038 2039 0.2157628446761124
2039 2039 0.5017326978110443
2040 2039 -0.2139860354809381
2039 2040 -0.2139860354809382
2040 2040 0.49768355517425955
2041 2040 0.21277748792530668
2040 2041 0.2127774879253067
2041 2041 0.4987210590953012
2042 2041 0.2140097390539704
2041 2042 0.2140097390539702
2042 2042 0.505877296458858
2043 2042 -0.20821695702387807
2042 2043 -0.208216957023878
2043 2043 0.4861066195261563
2044 2043 -0.2165888866342334
2043 2044 -0.21658888663423354
2044 2044 0.49648055635920046
2045 2044 0.2191124267351496
2044 2045 0.21911242673514952
2045 2045 0.5070123086913936
2046 2045 -0.21221380700028278
2045 2046 -0.21221380700028275
2046 2046 0.49073441419452835
2047 2046 -0.21417504848455562
2046 2047 -0.21417504848455587
2047 2047 0.4994793432526283
2048 2047 0.2137469527047534
2047 2048 0.21374695270475338
2048 2048 0.5035907192059182
2049 2048 -0.21113719206422088
2048 2049 -0.2111371920642209
2049 2049 0.49525373073586487
2050 2049 -0.21552711572903946
2049 2050 -0.21552711572903951
2050 2050 0.4928273681535394
2051 2050 0.21353406656001866
2050 2051 0.2135340665600188
2051 2051 0.5041174037721664
2052 2051 0.21221540104609804
2051 2052 0.21221540104609807
2052 2052 0.49837605841531085
2053 2052 0.21816128755027459
2052 2053 0.21816128755027464
2053 2053 0.49898166806186994
2054 2053 0.21606963338827304
2053 2054 0.21606963338827306
2054 2054 0.504717989395971
2055 2054 -0.2143247677881583
2054 2055 -0.21432476778815848
2055 2055 0.48905931099425404
2056 2055 0.21343980984893615
2055 2056 0.213439809848936
2056 2056 0.5014648182240202
2057 2056 0.21476960932020925
2056 2057 0.2147696093202093
2057 2057 0.4971504568623971
2058 2057 -0.21150383072006715
2057 2058 -0.21150383072006707
2058 2058 0.49946744701355406
2059 2058 0.2149941363839117
2058 2059 0.21499413638391215
2059 2059 0.49651699862205323
2060 2059 -0.21714489887869512
2059 2060 -0.21714489887869504
2060 2060 0.5067146053426271
2061 2060 0.2104542791467773
2060 2061 0.21045427914677745
2061 2061 0.5029451698564901
2062 2061 0.21635652915107934
2061 2062 0.2163565291510794
2062 2062 0.4993691830086874
2063 2062 0.21810860465145926
2062 2063 0.2181086046514592
2063 2063 0.5044003614627248
2064 2063 0.2149640059288266
2063 2064 0.21496400592882667
2064 2064 0.5022607868166997
2065 2064 0.2181717228887298
2064 2065 0.21817172288872988
2065 2065 0.5036957227134229
2066 2065 0.2111019771330035
2065 2066 0.2111019771330035
2066 2066 0.5071895006188671
2067 2066 -0.2128348559505725
2066 2067 -0.21283485595057275
2067 2067 0.5038106329869829
2068 2067 0.2180960939022969
2067 2068 0.21809609390229695
2068 2068 0.5012288330892918
2069 2068 0.218387751144859
2068 2069 0.21838775114485892
2069 2069 0.500734639069981
2070 2069 0.21440086800756278
2069 2070 0.21440086800756275
2070 2070 0.492180382390571
2071 2070 0.21207464813181617
2070 2071 0.2120746481318162
2071 2071 0.5060489514299986
2072 2071 -0.21565138704666653
2071 2072 -0.2156513870466664
2072 2072 0.5063772437465759
2073 2072 -0.21594813854627565
2072 2073 -0.21594813854627568
2073 2073 0.5016681439206236
2074 2073 0.2121763943044307
2073 2074 0.21217639430443078
2074 2074 0.5081811783937937
2075 2074 -0.21708338472468813
2074 2075 -0.21708338472468838
2075 2075 0.49996578417711546
2076 2075 0.21649797663690934
2075 2076 0.21649797663690915
2076 2076 0.5051901116258306
2077 2076 0.2097779165836872
2076 2077 0.2097779165836873
2077 2077 0.5035044220270125
2078 2077 -0.21339327352719245
2077 2078 -0.21339327352719245
2078 2078 0.4979706784230105
2079 2078 0.21171808556212168
2078 2079 0.2117180855621216
2079 2079 0.49854935160598063
2080 2079 -0.20944785855722858
2079 2080 -0.20944785855722858
2080 2080 0.5045903964343799
2081 2080 -0.2146075782724132
2080 2081 -0.2146075782724131
2081 2081 0.5091827143760724
2082 2081 -0.2160018635090068
2081 2082 -0.21600186350900683
2082 2082 0.4969192560778315
2083 2082 -0.2144065491927762
2082 2083 -0.21440654919277616
2083 2083 0.5000763622151282
2084 2083 -0.21463579849131242
2083 2084 -0.2146357984913124
2084 2084 0.5022659114250828
2085 2084 0.20878569217525184
2084 2085 0.20878569217525192
2085 2085 0.49675350864921103
2086 2085 0.2158259695715392
2085 2086 0.21582596957153913
2086 2086 0.49117700783446544
2087 2086 0.21231757376701366
2086 2087 0.21231757376701374
2087 2087 0.5046058349357755
2088 2087 0.21154330528448265
2087 2088 0.2115433052844828
2088 2088 0.49289057749316545
2089 2088 -0.21411090543152828
2088 2089 -0.2141109054315284
2089 2089 0.5044898291676487
2090 2089 -0.2149599720973057
2089 2090 -0.21495997209730575
2090 2090 0.490163142961946
2091 2090 0.21173777622952636
2090 2091 0.2117377762295264
2091 2091 0.5007102102946612
2092 2091 0.21153616252466995
2091 2092 0.21153616252466992
2092 2092 0.5028757841375728
2093 2092 0.2170059473655736
2092 2093 0.2170059473655734
2093 2093 0.5020004979139003
2094 2093 -0.21505231809406145
2093 2094 -0.2150523180940614
2094 2094 0.501406496444615
2095 2094 0.2163128594871914
2094 2095 0.21631285948719128
2095 2095 0.5032935580904142
2096 2095 0.21304642939075116
2095 2096 0.21304642939075127
2096 2096 0.500936331887146
2097 2096 0.21038945838921505
2096 2097 0.21038945838921513
2097 2097 0.5079552798472333
2098 2097 0.21536443802815763
2097 2098 0.21536443802815755
2098 2098 0.501867849986042
2099 2098 0.21358514664523476
2098 2099 0.21358514664523487
2099 2099 0.5054917677630825
2100 2099 -0.21508162017642202
2099 2100 -0.2150816201764222
2100 2100 0.49718564211701965
2101 2100 -0.20900671965712686
2100 2101 -0.20900671965712686
2101 2101 0.49520943584896404
2102 2101 0.21293728012718632
2101 2102 0.21293728012718638
2102 2102 0.5002043491881627
2103 2102 -0.21415992407785045
2102 2103 -0.21415992407785037
2103 2103 0.5001168111297364
2104 2103 -0.21257556055020224
2103 2104 -0.2125755605502025
2104 2104 0.5109117396509582
2105 2104 0.21195272100073384
2104 2105 0.21195272100073384
2105 2105 0.4931102017159726
2106 2105 -0.2095137893014318
2105 2106 -0.20951378930143189
2106 2106 0.5024320032402932
2107 2106 0.2130100054923216
2106 2107 0.2130100054923214
2107 2107 0.501217657542967
2108 2107 0.21251200074611093
2107 2108 0.21251200074611104
2108 2108 0.49216690905518085
2109 2108 0.2112779546231217
2108 2109 0.21127795462312177
2109 2109 0.4955834261004397
2110 2109 0.212686558743295
2109 2110 0.21268655874329523
2110 2110 0.5020332499255842
2111 2110 -0.21240344721217963
2110 2111 -0.2124034472121794
2111 2111 0.50668406560404
2112 2111 0.2131767822131304
2111 2112 0.21317678221313024
2112 2112 0.49839963255753267
2113 2112 -0.2094243749917309
2112 2113 -0.20942437499173083
2113 2113 0.5004276294661583
2114 2113 0.21380629264296813
2113 2114 0.2138062926429681
2114 2114 0.49381834550876247
2115 2114 -0.21259845341216838
2114 2115 -0.2125984534121684
2115 2115 0.5094935082735861
2116 2115 0.2098757019363265
2115 2116 0.20987570193632638
2116 2116 0.49331681219607126
2117 2116 -0.21335316329641307
2116 2117 -0.2133531632964131
2117 2117 0.5142105596678002
2118 2117 0.21007243734747397
2117 2118 0.21007243734747388
2118 2118 0.49235206762565004
2119 2118 0.21221016352873068
2118 2119 0.21221016352873057
2119 2119 0.5090431002357718
2120 2119 -0.2138677640052493
2119 2120 -0.21386776400524926
2120 2120 0.49690615778258584
2121 2120 0.2118769639539389
2120 2121 0.21187696395393887
2121 2121 0.5081615397633342
2122 2121 0.21563161508987375
2121 2122 0.21563161508987375
2122 2122 0.48992089631443847
2123 2122 -0.21025173306815922
2122 2123 -0.21025173306815903
2123 2123 0.5064669097356895
2124 2123 -0.2138995056170962
2123 2124 -0.2138995056170961
2124 2124 0.49879968707239164
2125 2124 -0.21030915183288804
2124 2125 -0.21030915183288806
2125 2125 0.5070310041370288
2126 2125 0.21061868622293922
2125 2126 0.21061868622293922
2126 2126 0.49629339055441996
2127 2126 0.20876889891511824
2126 2127 0.20876889891511824
2127 2127 0.49777561873500376
2128 2127 0.21199658763254203
2127 2128 0.21199658763254178
2128 2128 0.5026417058749291
2129 2128 -0.20942532323179816
2128 2129 -0.20942532323179824
2129 2129 0.504988116949236
2130 2129 0.2127776255453021
2129 2130 0.21277762554530213
2130 2130 0.4960717317376655
2131 2130 -0.20615799567159293
2130 2131 -0.20615799567159296
2131 2131 0.4966212172233313
2132 2131 0.21161613782410008
2131 2132 0.21161613782410005
2132 2132 0.4990337420676326
2133 2132 -0.20868330601363974
2132 2133 -0.2086833060136397
2133 2133 0.5015471848855921
2134 2133 -0.21298454362925154
2133 2134 -0.21298454362925148
2134 2134 0.4974894117823195
2135 2134 -0.21546578452958084
2134 2135 -0.21546578452958062
2135 2135 0.5015692842837922
2136 2135 -0.21192838603877792
2135 2136 -0.2119283860387779
2136 2136 0.5040029848490896
2137 2136 0.2117968292946678
2136 2137 0.21179682929466787
2137 2137 0.4912374556865789
2138 2137 0.21076516919402016
2137 2138 0.21076516919402014
2138 2138 0.5051613439996281
2139 2138 0.2113990658595501
2138 2139 0.21139906585955015
2139 2139 0.49795789000176827
2140 2139 0.2104908612922599
2139 2140 0.21049086129225972
2140 2140 0.49059606985321047
2141 2140 0.21257294285682976
2140 2141 0.2125729428568298
2141 2141 0.5066809030593764
2142 2141 0.21297655080960481
2141 2142 0.21297655080960465
2142 2142 0.49895735377110156
2143 2142 -0.2132387620713317
2142 2143 -0.21323876207133186
2143 2143 0.499795198060393
2144 2143 -0.2131390327606056
2143 2144 -0.21313903276060556
2144 2144 0.4997314920381748
2145 2144 0.20967670280558362
2144 2145 0.20967670280558356
2145 2145 0.4954934144625983
2146 2145 -0.21261717007592387
2145 2146 -0.21261717007592396
2146 2146 0.5038618641354897
2147 2146 0.21284970544537132
2146 2147 0.21284970544537146
2147 2147 0.49940252436891686
2148 2147 0.20770729875649546
2147 2148 0.20770729875649543
2148 2148 0.5053767898227225
2149 2148 0.21421941556038374
2148 2149 0.2142194155603838
2149 2149 0.49539960721262455
2150 2149 -0.2124178786618012
2149 2150 -0.21241787866180123
2150 2150 0.4883382678170858
2151 2150 -0.21259891624398816
2150 2151 -0.2125989162439882
2151 2151 0.5029241222015793
2152 2151 -0.21049892605532883
2151 2152 -0.21049892605532883
2152 2152 0.4925112293545114
2153 2152 -0.21408730977977714
2152 2153 -0.214087309779777
2153 2153 0.5031155199027308
2154 2153 -0.20964811631914382
2153 2154 -0.209648116319144
2154 2154 0.4951583089559336
2155 2154 -0.2119067034906121
2154 2155 -0.2119067034906121
2155 2155 0.505842212847426
2156 2155 0.21357342124941253
2155 2156 0.21357342124941261
2156 2156 0.49797424504705223
2157 2156 -0.21334178903270964
2156 2157 -0.21334178903270967
2157 2157 0.49527318879241755
2158 2157 -0.20323288432784967
2157 2158 -0.20323288432784964
2158 2158 0.49887165992195787
2159 2158 -0.21110496280825725
2158 2159 -0.21110496280825736
2159 2159 0.49864350541446634
2160 2159 0.20993058298380748
2159 2160 0.20993058298380754
2160 2160 0.49346823708047294
2161 2160 0.21268891157800715
2160 2161 0.21268891157800715
2161 2161 0.49317821854302424
2162 2161 0.20470993934832468
2161 2162 0.20470993934832468
2162 2162 0.5035250976670202
2163 2162 -0.2112938717937054
2162 2163 -0.21129387179370546
2163 2163 0.4930488276451094
2164 2163 0.21012586801652952
2163 2164 0.2101258680165294
2164 2164 0.4959203682888716
2165 2164 -0.2054857123277058
2164 2165 -0.20548571232770582
2165 2165 0.5026566885707506
2166 2165 -0.2093796746428818
2165 2166 -0.20937967464288176
2166 2166 0.5038528419338116
2167 2166 -0.21085341200807498
2166 2167 -0.21085341200807492
2167 2167 0.4986855587809465
2168 2167 -0.20900018480580926
2167 2168 -0.20900018480580954
2168 2168 0.493368064163637
2169 2168 -0.2137830317169539
2168 2169 -0.21378303171695398
2169 2169 0.4979065919374792
2170 2169 -0.21021958455743245
2169 2170 -0.21021958455743248
2170 2170 0.5072672436029007
2171 2170 -0.21418680863762785
2170 2171 -0.21418680863762776
2171 2171 0.49601033274068934
2172 2171 -0.2044401250485698
2171 2172 -0.20444012504856982
2172 2172 0.4982282157190202
2173 2172 -0.20983663172360678
2172 2173 -0.20983663172360675
2173 2173 0.4952764776324635
2174 2173 -0.2122770205486628
2173 2174 -0.2122770205486627
2174 2174 0.5039198941285972
2175 2174 -0.2112631866903614
2174 2175 -0.21126318669036154
2175 2175 0.49558091300486745
2176 2175 0.20999721360703494
2175 2176 0.20999721360703513
2176 2176 0.506768463122754
2177 2176 -0.20991127913346597
2176 2177 -0.20991127913346597
2177 2177 0.498411001106806
2178 2177 -0.20968473374690424
2177 2178 -0.20968473374690424
2178 2178 0.5000680377884663
2179 2178 0.21492613106945746
2178 2179 0.21492613106945738
2179 2179 0.4986812587751526
2180 2179 0.20703736007116613
2179 2180 0.20703736007116608
2180 2180 0.5064388059512439
2181 2180 -0.2120759060823381
2180 2181 -0.21207590608233803
2181 2181 0.498490651684547
2182 2181 -0.21038887591480754
2181 2182 -0.21038887591480743
2182 2182 0.5046406317421707
2183 2182 0.21047004174760736
2182 2183 0.21047004174760722
2183 2183 0.5018765468283263
2184 2183 0.20722955794212838
2183 2184 0.20722955794212855
2184 2184 0.5019349567692144
2185 2184 -0.20882731504400023
2184 2185 -0.20882731504400026
2185 2185 0.5075850470787666
2186 2185 -0.21330415232386218
2185 2186 -0.2133041523238621
2186 2186 0.4990472380927192
2187 2186 -0.21046791100372278
2186 2187 -0.21046791100372267
2187 2187 0.5020038377897116
2188 2187 0.20436803476376772
2187 2188 0.2043680347637677
2188 2188 0.5041174722113042
2189 2188 0.21230463028463714
2188 2189 0.2123046302846372
2189 2189 0.4974048451949173
2190 2189 -0.20898915344978652
2189 2190 -0.20898915344978652
2190 2190 0.5011116277308215
2191 2190 -0.21011569018061932
2190 2191 -0.21011569018061943
2191 2191 0.509085946450262
2192 2191 -0.2081672009373258
2191 2192 -0.2081672009373257
2192 2192 0.49623610864807116
2193 2192 0.20911008681269821
2192 2193 0.20911008681269813
2193 2193 0.49569206305671193
2194 2193 -0.2086787719647538
2193 2194 -0.20867877196475376
2194 2194 0.5031426927702309
2195 2194 0.20841500996073156
2194 2195 0.20841500996073148
2195 2195 0.49926539392644037
2196 2195 -0.208020342000104
2195 2196 -0.20802034200010386
2196 2196 0.501301718566974
2197 2196 -0.20498982224910495
2196 2197 -0.204989822249105
2197 2197 0.4941446091852373
2198 2197 0.20670759411279022
2197 2198 0.20670759411279024
2198 2198 0.5009006736505505
2199 2198 0.20776908078661957
2198 2199 0.20776908078661943
2199 2199 0.5056834636738117
2200 2199 -0.20812779818605387
2199 2200 -0.20812779818605381
2200 2200 0.5066102488835317
2201 2200 -0.207433101358237
2200 2201 -0.20743310135823706
2201 2201 0.4956327632255267
2202 2201 0.2078776707042022
2201 2202 0.20787767070420204
2202 2202 0.49746153495217244
2203 2202 -0.20770906895339003
2202 2203 -0.20770906895339
2203 2203 0.5072088980629779
2204 2203 -0.20677469434014922
2203 2204 -0.20677469434014933
2204 2204 0.49821726014671874
2205 2204 -0.21015317399862987
2204 2205 -0.21015317399862976
2205 2205 0.4959436628972921
2206 2205 -0.2079196348570007
2205 2206 -0.20791963485700068
2206 2206 0.5124469347337433
2207 2206 0.20876316462811173
2206 2207 0.20876316462811179
2207 2207 0.49812605544342015
2208 2207 0.20916439923238914
2207 2208 0.20916439923238905
2208 2208 0.4995710635608205
2209 2208 -0.21007974132813623
2208 2209 -0.21007974132813634
2209 2209 0.5009970762869265
2210 2209 -0.20670796618442233
2209 2210 -0.20670796618442222
2210 2210 0.5014973531351223
2211 2210 -0.21203315173119866
2210 2211 -0.21203315173119874
2211 2211 0.5106022641364358
2212 2211 -0.20844985282085
2211 2212 -0.2084498528208499
2212 2212 0.49608907986542805
2213 2212 -0.20787716749191396
2212 2213 -0.20787716749191398
2213 2213 0.49988400991600224
2214 2213 0.20893514043671546
2213 2214 0.2089351404367156
2214 2214 0.5050881856912848
2215 2214 0.207846212022439
2214 2215 0.20784621202243922
2215 2215 0.49764187485535766
2216 2215 0.20829103634654894
2215 2216 0.2082910363465491
2216 2216 0.5009548784946128
2217 2216 0.20987280241450385
2216 2217 0.20987280241450362
2217 2217 0.5046457684814988
2218 2217 -0.20672247467355875
2217 2218 -0.20672247467355853
2218 2218 0.4980583761938318
2219 2218 -0.20879721122591013
2218 2219 -0.20879721122591013
2219 2219 0.4953896939489744
2220 2219 0.2089670806391967
2219 2220 0.2089670806391966
2220 2220 0.4961630280851913
2221 2220 -0.2057463799432457
2220 2221 -0.20574637994324568
2221 2221 0.5055304962643782
2222 2221 0.2107051936245885
2221 2222 0.21070519362458856
2222 2222 0.5003163544817164
2223 2222 0.2084085054840177
2222 2223 0.20840850548401768
2223 2223 0.49432013139095377
2224 2223 -0.20393726239766927
2223 2224 -0.20393726239766913
2224 2224 0.49999741806152925
2225 2224 0.20626579359610855
2224 2225 0.2062657935961085
2225 2225 0.4995198315744034
2226 2225 -0.2067107802336518
2225 2226 -0.20671078023365183
2226 2226 0.5060989675712758
2227 2226 -0.20489979834816416
2226 2227 -0.2048997983481642
2227 2227 0.49845163504368295
2228 2227 0.20506672096581693
2227 2228 0.20506672096581685
2228 2228 0.49744402224830303
2229 2228 -0.20923515069419654
2228 2229 -0.20923515069419657
2229 2229 0.4988545385169245
2230 2229 -0.20692635398313552
2229 2230 -0.2069263539831356
2230 2230 0.49753056503159127
2231 2230 -0.20369973589789855
2230 2231 -0.20369973589789842
2231 2231 0.5013186675410888
2232 2231 -0.20952228436740727
2231 2232 -0.20952228436740739
2232 2232 0.49024894368908833
2233 2232 -0.21195774728462569
2232 2233 -0.21195774728462596
2233 2233 0.49484730488900647
2234 2233 -0.2105801400939084
2233 2234 -0.21058014009390846
2234 2234 0.5028912753017323
2235 2234 0.20878614359794542
2234 2235 0.20878614359794564
2235 2235 0.5022428386799409
2236 2235 -0.2107505218661555
2235 2236 -0.2107505218661554
2236 2236 0.4957675344601175
2237 2236 0.2047572755766601
2236 2237 0.20475727557666024
2237 2237 0.4987105244689704
2238 2237 0.21059800358241387
2237 2238 0.21059800358241373
2238 2238 0.4997318922693615
2239 2238 0.20919837079622397
2238 2239 0.20919837079622391
2239 2239 0.4957702265655145
2240 2239 0.21130768159722402
2239 2240 0.21130768159722418
2240 2240 0.49710428372910836
2241 2240 0.20781720156291178
2240 2241 0.20781720156291167
2241 2241 0.5015569284779579
2242 2241 -0.2080010127248025
2241 2242 -0.2080010127248026
2242 2242 0.5012130865192247
2243 2242 -0.2061450176922339
2242 2243 -0.20614501769223395
2243 2243 0.4967925938162711
2244 2243 0.20691386194903583
2243 2244 0.20691386194903583
2244 2244 0.4968277581297743
2245 2244 -0.20715349853080375
2244 2245 -0.2071534985308039
2245 2245 0.5038748540942999
2246 2245 0.20367412338981905
2245 2246 0.20367412338981897
2246 2246 0.5048572431054242
2247 2246 0.20245977258561154
2246 2247 0.2024597725856116
2247 2247 0.49737408248958237
2248 2247 -0.20594099718130868
2247 2248 -0.20594099718130865
2248 2248 0.49337731716516137
2249 2248 0.20483641521882667
2248 2249 0.2048364152188266
2249 2249 0.5011004187977611
2250 2249 -0.20417383434089578
2249 2250 -0.20417383434089592
2250 2250 0.5013791807833385
2251 2250 -0.20913080196243886
2250 2251 -0.20913080196243894
2251 2251 0.5014066987590049
2252 2251 0.21181933268891914
2251 2252 0.2118193326889192
2252 2252 0.49999898285582883
2253 2252 -0.20613045282223988
2252 2253 -0.20613045282223988
2253 2253 0.5041237297577961
2254 2253 0.20708496318484246
2253 2254 0.2070849631848424
2254 2254 0.49913927702471617
2255 2254 0.2086890975608812
2254 2255 0.2086890975608812
2255 2255 0.4961903212022422
2256 2255 -0.2024625105129059
2255 2256 -0.20246251051290587
2256 2256 0.5034147673102194
2257 2256 0.2025214120747191
2256 2257 0.2025214120747191
2257 2257 0.5001907636186267
2258 2257 0.20549645922105245
2257 2258 0.20549645922105245
2258 2258 0.4950452837259428
2259 2258 0.2056815622994921
2258 2259 0.20568156229949203
2259 2259 0.5008342323703355
2260 2259 0.2059634980503206
2259 2260 0.20596349805032055
2260 2260 0.4981270018036126
2261 2260 0.19899883820983172
2260 2261 0.19899883820983172
2261 2261 0.499845561192333
2262 2261 0.20644130291730634
2261 2262 0.20644130291730634
2262 2262 0.5045405701222746
2263 2262 -0.20651331017276506
2262 2263 -0.20651331017276534
2263 2263 0.5044831965359218
2264 2263 0.20807748527682582
2263 2264 0.20807748527682593
2264 2264 0.48901259986329954
2265 2264 0.2024745480779823
2264 2265 0.20247454807798235
2265 2265 0.5022376226357828
2266 2265 -0.21133956210664917
2265 2266 -0.2113395621066494
2266 2266 0.49862693286768456
2267 2266 0.2076729323965922
2266 2267 0.20767293239659232
2267 2267 0.5042492923957418
2268 2267 -0.2078326453495972
2267 2268 -0.20783264534959708
2268 2268 0.49917079996140423
2269 2268 -0.20478898737707496
2268 2269 -0.2047889873770751
2269 2269 0.5026113479087377
2270 2269 -0.20740785084298574
2269 2270 -0.2074078508429857
2270 2270 0.4976328576966591
2271 2270 -0.2030889787937211
2270 2271 -0.20308897879372098
2271 2271 0.5002876316272654
2272 2271 0.21093095634158748
2271 2272 0.2109309563415874
2272 2272 0.4987106137233955
2273 2272 -0.20408998449529414
2272 2273 -0.20408998449529414
2273 2273 0.5087910267236817
2274 2273 -0.21046307020321955
2273 2274 -0.21046307020321953
2274 2274 0.4928557972506963
2275 2274 0.20607747819913863
2274 2275 0.20607747819913863
2275 2275 0.49809550761760757
2276 2275 0.2042399807874601
2275 2276 0.20423998078746
2276 2276 0.5022720116889032
2277 2276 -0.20801342634656989
2276 2277 -0.20801342634657002
2277 2277 0.5030432293047606
2278 2277 -0.20863776038371315
2277 2278 -0.20863776038371312
2278 2278 0.5029728015061745
2279 2278 -0.20718978288688777
2278 2279 -0.20718978288688764
2279 2279 0.5055336579295792
2280 2279 0.20193170658972032
2279 2280 0.20193170658971998
2280 2280 0.498441413118284
2281 2280 -0.2089139576322904
2280 2281 -0.2089139576322904
2281 2281 0.49900211192482175
2282 2281 -0.20590575741024678
2281 2282 -0.20590575741024664
2282 2282 0.49554642183112785
2283 2282 -0.20887334377486513
2282 2283 -0.20887334377486513
2283 2283 0.4978882338481716
2284 2283 0.20570532806807018
2283 2284 0.20570532806807013
2284 2284 0.49821838457977313
2285 2284 -0.20389714275793236
2284 2285 -0.20389714275793244
2285 2285 0.49863935328512776
2286 2285 0.20534165385368233
2285 2286 0.20534165385368225
2286 2286 0.5005096656668104
2287 2286 0.20647317598036055
2286 2287 0.20647317598036063
2287 2287 0.4922824396154831
2288 2287 -0.2025021810279936
2287 2288 -0.2025021810279938
2288 2288 0.5050790975460141
2289 2288 0.2043282085770846
2288 2289 0.2043282085770846
2289 2289 0.49732721410173325
2290 2289 -0.21117151259952835
2289 2290 -0.21117151259952835
2290 2290 0.4922190469914059
2291 2290 -0.2009313019736144
2290 2291 -0.2009313019736142
2291 2291 0.4928439827611753
2292 2291 0.20482061800979245
2291 2292 0.20482061800979257
2292 2292 0.5081274181090013
2293 2292 -0.20332439940138283
2292 2293 -0.20332439940138286
2293 2293 0.49427894388849575
2294 2293 0.2026726697428002
2293 2294 0.20267266974280015
2294 2294 0.5015349223498631
2295 2294 -0.20666666842019538
2294 2295 -0.20666666842019546
2295 2295 0.4951916038617469
2296 2295 0.2030803219812404
2295 2296 0.20308032198124032
2296 2296 0.5108454313510044
2297 2296 0.20740430110843228
2296 2297 0.20740430110843233
2297 2297 0.5073755165145868
2298 2297 -0.20668476932762359
2297 2298 -0.20668476932762353
2298 2298 0.4921944962694098
2299 2298 0.20448364057880444
2298 2299 0.20448364057880436
2299 2299 0.49749729938204534
2300 2299 0.20346636418204125
2299 2300 0.2034663641820414
2300 2300 0.5011308566936578
2301 2300 0.20577967558511553
2300 2301 0.20577967558511556
2301 2301 0.503798845974297
2302 2301 -0.2034693686654916
2301 2302 -0.20346936866549165
2302 2302 0.5017044366271564
2303 2302 -0.20186757939423378
2302 2303 -0.20186757939423358
2303 2303 0.4965781017095293
2304 2303 -0.20359366553960181
2303 2304 -0.20359366553960184
2304 2304 0.4981119033841477
2305 2304 0.20281468231253896
2304 2305 0.2028146823125389
2305 2305 0.5049477248106304
2306 2305 -0.20697728604964133
2305 2306 -0.20697728604964127
2306 2306 0.49148548820009447
2307 2306 -0.20181460027035894
2306 2307 -0.2018146002703592
2307 2307 0.5073751716346107
2308 2307 -0.20427617575248241
2307 2308 -0.20427617575248236
2308 2308 0.49740320993388043
2309 2308 -0.19969246362920576
2308 2309 -0.19969246362920576
2309 2309 0.5012652846905312
2310 2309 -0.20535370970976102
2309 2310 -0.2053537097097609
2310 2310 0.4994254508215885
2311 2310 -0.2057720746928345
2310 2311 -0.2057720746928347
2311 2311 0.5072317993933818
2312 2311 0.20022637595442888
2311 2312 0.20022637595442883
2312 2312 0.5100458766561681
2313 2312 0.20182774022803565
2312 2313 0.20182774022803582
2313 2313 0.4915754240069483
2314 2313 0.20306103982444565
2313 2314 0.20306103982444565
2314 2314 0.5071315008308516
2315 2314 0.20275513199660852
2314 2315 0.20275513199660858
2315 2315 0.5009990392055002
2316 2315 -0.20270816915212764
2315 2316 -0.20270816915212772
2316 2316 0.508491014289528
2317 2316 -0.20626425122345235
2316 2317 -0.20626425122345232
2317 2317 0.5067961481464858
2318 2317 -0.19914281406038095
2317 2318 -0.19914281406038084
2318 2318 0.5005109369732776
2319 2318 0.20366247802860632
2318 2319 0.2036624780286062
2319 2319 0.4936491698206197
2320 2319 -0.20354542430541872
2319 2320 -0.20354542430541858
2320 2320 0.5036053230245385
2321 2320 0.20180576253413174
2320 2321 0.20180576253413193
2321 2321 0.4991280235657508
2322 2321 -0.2047232661836185
2321 2322 -0.20472326618361864
2322 2322 0.4966730097698576
2323 2322 -0.2034526854317889
2322 2323 -0.20345268543178893
2323 2323 0.5030717533232013
2324 2323 -0.20538063222862157
2323 2324 -0.2053806322286216
2324 2324 0.49531597494831925
2325 2324 0.20289295286660855
2324 2325 0.2028929528666083
2325 2325 0.501741514308145
2326 2325 0.19854743237130143
2325 2326 0.19854743237130137
2326 2326 0.49777836098044526
2327 2326 0.20483606692774398
2326 2327 0.20483606692774403
2327 2327 0.512658962939221
2328 2327 0.2004011361385165
2327 2328 0.20040113613851646
2328 2328 0.5013615104029534
2329 2328 0.19898164208017227
2328 2329 0.19898164208017238
2329 2329 0.5013960928141166
2330 2329 -0.2024253457013527
2329 2330 -0.2024253457013526
2330 2330 0.5044269224732565
2331 2330 0.20155566515157392
2330 2331 0.20155566515157392
2331 2331 0.49546498294597696
2332 2331 0.20237171923511982
2331 2332 0.20237171923511982
2332 2332 0.5022635066273597
2333 2332 0.20658907940989815
2332 2333 0.20658907940989815
2333 2333 0.5014279383648215
2334 2333 -0.20169473838750196
2333 2334 -0.20169473838750193
2334 2334 0.4961718953703944
2335 2334 -0.20206212863756468
2334 2335 -0.20206212863756462
2335 2335 0.5001613990390906
2336 2335 0.20733206147956537
2335 2336 0.20733206147956523
2336 2336 0.5013908873024315
2337 2336 0.1998014024760396
2336 2337 0.1998014024760395
2337 2337 0.49779058524970016
2338 2337 0.20742814135005322
2337 2338 0.2074281413500533
2338 2338 0.48892137287417914
2339 2338 0.20369314802222024
2338 2339 0.20369314802222016
2339 2339 0.5089363515425053
2340 2339 -0.20283937785247252
2339 2340 -0.2028393778524725
2340 2340 0.5024026763350231
2341 2340 0.20713061280071773
2340 2341 0.2071306128007177
2341 2341 0.4955532044765534
2342 2341 -0.20452996813865956
2341 2342 -0.20452996813865956
2342 2342 0.5030459225979398
2343 2342 0.20315558696120625
2342 2343 0.20315558696120614
2343 2343 0.48766592384788005
2344 2343 -0.201816248529209
2343 2344 -0.20181624852920885
2344 2344 0.5036590514644195
2345 2344 -0.20627918956622388
2344 2345 -0.20627918956622385
2345 2345 0.5065966205108883
2346 2345 0.2044352562158894
2345 2346 0.20443525621588937
2346 2346 0.5008487771156944
2347 2346 0.2015575986895592
2346 2347 0.20155759868955925
2347 2347 0.4971771639753364
2348 2347 0.20075711256121503
2347 2348 0.2007571125612152
2348 2348 0.49545646274953004
2349 2348 0.2018735330306621
2348 2349 0.20187353303066208
2349 2349 0.5054774353405014
2350 2349 -0.20094286315248885
2349 2350 -0.20094286315248894
2350 2350 0.4985541946214601
2351 2350 -0.207960443986199
2350 2351 -0.20796044398619912
2351 2351 0.4925518418979219
2352 2351 0.20591993683844226
2351 2352 0.20591993683844215
2352 2352 0.503016163555976
2353 2352 -0.19995014599885924
2352 2353 -0.19995014599885924
2353 2353 0.4990636601817318
2354 2353 0.2032989143030556
2353 2354 0.20329891430305555
2354 2354 0.49518415469832067
2355 2354 -0.1991305234104784
2354 2355 -0.19913052341047843
2355 2355 0.49633281551647346
2356 2355 0.19918384299837147
2355 2356 0.19918384299837175
2356 2356 0.4891704315206689
2357 2356 -0.19852314534511167
2356 2357 -0.19852314534511156
2357 2357 0.4962939442816011
2358 2357 -0.20346224685403216
2357 2358 -0.20346224685403208
2358 2358 0.5048343958591444
2359 2358 0.20317986768604468
2358 2359 0.2031798676860447
2359 2359 0.5027053747790192
2360 2359 0.2016788179977085
2359 2360 0.2016788179977087
2360 2360 0.49323452127649414
2361 2360 0.20092107061866019
2360 2361 0.20092107061866032
2361 2361 0.5064610574879218
2362 2361 -0.20097877259512922
2361 2362 -0.20097877259512925
2362 2362 0.5047804783263866
2363 2362 0.2016299117681139
2362 2363 0.20162991176811393
2363 2363 0.4988547675210218
2364 2363 0.20180903688819612
2363 2364 0.20180903688819612
2364 2364 0.4914925454133834
2365 2364 -0.20059631191403307
2364 2365 -0.200596311914033
2365 2365 0.488031890575591
2366 2365 0.19805460157766902
2365 2366 0.1980546015776688
2366 2366 0.5059708685100057
2367 2366 0.20363044677431474
2366 2367 0.20363044677431497
2367 2367 0.4954968507179185
2368 2367 -0.20236557110954803
2367 2368 -0.20236557110954817
2368 2368 0.49103569652610535
2369 2368 0.20109548131154395
2368 2369 0.20109548131154392
2369 2369 0.49451451450923223
2370 2369 0.20167599598533553
2369 2370 0.20167599598533548
2370 2370 0.5009286446532542
2371 2370 -0.20110951066742483
2370 2371 -0.20110951066742508
2371 2371 0.4979916865619711
2372 2371 -0.19937511429572302
2371 2372 -0.19937511429572302
2372 2372 0.5021047507263642
2373 2372 0.19852693620010947
2372 2373 0.19852693620010947
2373 2373 0.5033088035757836
2374 2373 0.20179668176149562
2373 2374 0.2017966817614956
2374 2374 0.505837110816759
2375 2374 -0.2018835134304263
2374 2375 -0.20188351343042615
2375 2375 0.5044477488995469
2376 2375 -0.2067292552756107
2375 2376 -0.2067292552756106
2376 2376 0.4969160882362369
2377 2376 -0.20462434269687238
2376 2377 -0.20462434269687244
2377 2377 0.5030752873025829
2378 2377 0.20245059799130558
2377 2378 0.2024505979913055
2378 2378 0.5012485023639257
2379 2378 -0.19757823607154437
2378 2379 -0.19757823607154448
2379 2379 0.4986199791057976
2380 2379 0.20330318360417465
2379 2380 0.2033031836041748
2380 2380 0.5009576707859784
2381 2380 -0.20067062188551724
2380 2381 -0.20067062188551724
2381 2381 0.5036279386712619
2382 2381 -0.19794925223649232
2381 2382 -0.19794925223649223
2382 2382 0.5042638213310521
2383 2382 -0.19755288750505517
2382 2383 -0.19755288750505515
2383 2383 0.5098265090065046
2384 2383 0.19763256188897244
2383 2384 0.1976325618889724
2384 2384 0.5044153877586723
2385 2384 0.2069803022321182
2384 2385 0.20698030223211814
2385 2385 0.5014103966943786
2386 2385 -0.19542365712943432
2385 2386 -0.1954236571294343
2386 2386 0.49986877725180484
2387 2386 -0.20214851889870833
2386 2387 -0.20214851889870808
2387 2387 0.5038654666173247
2388 2387 0.20253022788977298
2387 2388 0.20253022788977285
2388 2388 0.5017758312485947
2389 2388 0.19985309697714376
2388 2389 0.19985309697714373
2389 2389 0.5105896136790248
2390 2389 0.20258428566826656
2389 2390 0.20258428566826672
2390 2390 0.5013173921593782
2391 2390 0.201007486327811
2390 2391 0.20100748632781115
2391 2391 0.49943477474961473
2392 2391 -0.1999736473875803
2391 2392 -0.19997364738758028
2392 2392 0.5036526767241221
2393 2392 -0.1980804205589249
2392 2393 -0.19808042055892489
2393 2393 0.4968172152280623
2394 2393 -0.20234362207608195
2393 2394 -0.20234362207608206
2394 2394 0.4942788176682438
2395 2394 0.20361847936782368
2394 2395 0.20361847936782349
2395 2395 0.4925036049181429
2396 2395 -0.1974355513468067
2395 2396 -0.19743555134680665
2396 2396 0.49628567779364036
2397 2396 0.20215917501172953
2396 2397 0.20215917501172948
2397 2397 0.5027817339834545
2398 2397 0.19959497566794324
2397 2398 0.19959497566794318
2398 2398 0.49702751198551365
2399 2398 -0.20422111085577022
2398 2399 -0.2042211108557702
2399 2399 0.4981630073710164
2400 2399 -0.19831719440290993
2399 2400 -0.19831719440291004
2400 2400 0.5070627793562453
2401 2400 0.1987805130328387
2400 2401 0.19878051303283867
2401 2401 0.5033481257309446
2402 2401 -0.20142835929078026
2401 2402 -0.20142835929078037
2402 2402 0.5070714965633831
2403 2402 0.20122511975448554
2402 2403 0.20122511975448554
2403 2403 0.5056661167879847
2404 2403 -0.20077777543632225
2403 2404 -0.20077777543632216
2404 2404 0.5011177633461399
2405 2404 -0.19804774094761965
2404 2405 -0.19804774094761957
2405 2405 0.5025122195783004
2406 2405 0.19853619617306517
2405 2406 0.1985361961730652
2406 2406 0.5036416451303997
2407 2406 -0.19820639171733395
2406 2407 -0.19820639171733426
2407 2407 0.49218566951676224
2408 2407 -0.2018741831474283
2407 2408 -0.2018741831474281
2408 2408 0.5055906403197507
2409 2408 -0.1988053599671452
2408 2409 -0.19880535996714524
2409 2409 0.5042928143662095
2410 2409 0.19795276039123114
2409 2410 0.19795276039123122
2410 2410 0.49933062057128386
2411 2410 0.19901090538777985
2410 2411 0.19901090538777977
2411 2411 0.5038724800211973
2412 2411 -0.19951194130750177
2411 2412 -0.19951194130750174
2412 2412 0.5055621358674904
2413 2412 -0.1980118484702818
2412 2413 -0.1980118484702818
2413 2413 0.5037927016900515
2414 2413 -0.20236124803731903
2413 2414 -0.2023612480373192
2414 2414 0.5064031126051597
2415 2414 -0.19643456683363994
2414 2415 -0.19643456683363988
2415 2415 0.4918108187250905
2416 2415 0.20013115029090006
2415 2416 0.2001311502909
2416 2416 0.49953282122171466
2417 2416 0.2029286372666573
2416 2417 0.20292863726665727
2417 2417 0.4919465585684651
2418 2417 0.1971507692557505
2417 2418 0.19715076925575048
2418 2418 0.5000212722007704
2419 2418 -0.19914047026731752
2418 2419 -0.19914047026731763
2419 2419 0.5033794779903169
2420 2419 0.19798870140527003
2419 2420 0.19798870140527008
2420 2420 0.4955941541375668
2421 2420 0.1997518664606918
2420 2421 0.19975186646069176
2421 2421 0.49925010023046523
2422 2421 -0.1982356201911204
2421 2422 -0.1982356201911204
2422 2422 0.49363079500991486
2423 2422 0.19689147192104875
2422 2423 0.19689147192104856
2423 2423 0.5013630119417282
2424 2423 0.20120195389270681
2423 2424 0.20120195389270681
2424 2424 0.497504031698622
2425 2424 -0.19883924105012016
2424 2425 -0.19883924105012005
2425 2425 0.4945377268041128
2426 2425 -0.19680141281053976
2425 2426 -0.19680141281053967
2426 2426 0.5011461753686054
2427 2426 -0.2032466094810461
2426 2427 -0.20324660948104603
2427 2427 0.49544723436921123
2428 2427 -0.20065229001005289
2427 2428 -0.20065229001005289
2428 2428 0.5058259724765442
2429 2428 -0.2001138522807398
2428 2429 -0.20011385228073986
2429 2429 0.504195298236511
2430 2429 -0.1987138200794417
2429 2430 -0.19871382007944166
2430 2430 0.499188594555957
2431 2430 -0.1982746022042458
2430 2431 -0.19827460220424592
2431 2431 0.5002935199643214
2432 2431 -0.20199087186455608
2431 2432 -0.201990871864556
2432 2432 0.49976551104041705
2433 2432 -0.19540755194592577
2432 2433 -0.19540755194592577
2433 2433 0.49541437908312214
2434 2433 0.19541074602209424
2433 2434 0.19541074602209435
2434 2434 0.5069982985449277
2435 2434 -0.2007275239856113
2434 2435 -0.2007275239856111
2435 2435 0.4931132757521813
2436 2435 -0.19646056416519572
2435 2436 -0.19646056416519556
2436 2436 0.49185542012679356
2437 2436 -0.19901526502297975
2436 2437 -0.19901526502297978
2437 2437 0.5012246077652484
2438 2437 0.1985609500807976
2437 2438 0.19856095008079763
2438 2438 0.5029183308749772
2439 2438 0.19801121209001007
2438 2439 0.19801121209000994
2439 2439 0.5036930826806834
2440 2439 0.19599585300897898
2439 2440 0.19599585300897893
2440 2440 0.4943414443814427
2441 2440 -0.1974282358016213
2440 2441 -0.19742823580162105
2441 2441 0.49938803207522103
2442 2441 -0.1974535027819346
2441 2442 -0.1974535027819346
2442 2442 0.48961948446604553
2443 2442 0.19474562307140486
2442 2443 0.19474562307140492
2443 2443 0.49548840509930014
2444 2443 0.19929024107758628
2443 2444 0.19929024107758633
2444 2444 0.49756475785854976
2445 2444 -0.19839617829281123
2444 2445 -0.19839617829281145
2445 2445 0.49509935016328227
2446 2445 0.19688401561324673
2445 2446 0.19688401561324673
2446 2446 0.5009513212315766
2447 2446 0.20020889680837492
2446 2447 0.20020889680837495
2447 2447 0.49704146488138345
2448 2447 0.19913037644106124
2447 2448 0.19913037644106127
2448 2448 0.5092850826986732
2449 2448 -0.19703007043956763
2448 2449 -0.1970300704395675
2449 2449 0.49280270451560576
2450 2449 -0.1959642671993612
2449 2450 -0.19596426719936133
2450 2450 0.5030459858127363
2451 2450 0.1978649885278283
2450 2451 0.1978649885278281
2451 2451 0.49652463251583145
2452 2451 -0.1981778473719749
2451 2452 -0.19817784737197489
2452 2452 0.4999929408861926
2453 2452 0.19463260062194077
2452 2453 0.19463260062194068
2453 2453 0.49716481035417864
2454 2453 0.20028942249037637
2453 2454 0.2002894224903763
2454 2454 0.49743642734475213
2455 2454 0.19797805944849997
2454 2455 0.1979780594484998
2455 2455 0.5003367827638724
2456 2455 -0.1972561897495877
2455 2456 -0.19725618974958775
2456 2456 0.5128195463424925
2457 2456 -0.19782711429736843
2456 2457 -0.1978271142973686
2457 2457 0.4964338519963644
2458 2457 0.19718520392770894
2457 2458 0.1971852039277089
2458 2458 0.49094156640449527
2459 2458 -0.1972214644868805
2458 2459 -0.1972214644868805
2459 2459 0.5062323726844068
2460 2459 0.19824991483689686
2459 2460 0.19824991483689697
2460 2460 0.5016325190551841
2461 2460 0.19637468884767642
2460 2461 0.19637468884767645
2461 2461 0.5095084335457978
2462 2461 0.1983768723417134
2461 2462 0.19837687234171336
2462 2462 0.5008087529842944
2463 2462 -0.19825163909454396
2462 2463 -0.19825163909454394
2463 2463 0.49564227459367566
2464 2463 0.19979808881661743
2463 2464 0.1997980888166172
2464 2464 0.5026996357926925
2465 2464 0.19509143950710575
2464 2465 0.19509143950710572
2465 2465 0.4924067882451259
2466 2465 0.19790701221092605
2465 2466 0.19790701221092613
2466 2466 0.4948780079710371
2467 2466 -0.20057141236868767
2466 2467 -0.20057141236868758
2467 2467 0.49735930337855305
2468 2467 0.20151394039302925
2467 2468 0.20151394039302967
2468 2468 0.5058079667292621
2469 2468 0.19551962876672419
2468 2469 0.19551962876672419
2469 2469 0.497480466156918
2470 2469 -0.19385406624187795
2469 2470 -0.19385406624187793
2470 2470 0.4977543565648915
2471 2470 0.19767645000700843
2470 2471 0.19767645000700843
2471 2471 0.4921302014733184
2472 2471 0.19753277466732594
2471 2472 0.19753277466732597
2472 2472 0.5088911502049391
2473 2472 -0.19513351101329093
2472 2473 -0.19513351101329085
2473 2473 0.5001075695086576
2474 2473 -0.19623223148646227
2473 2474 -0.1962322314864622
2474 2474 0.5035656644579571
2475 2474 0.1986527771372795
2474 2475 0.19865277713727936
2475 2475 0.4962834375411105
2476 2475 0.19557613949544994
2475 2476 0.19557613949545025
2476 2476 0.5003632890254732
2477 2476 -0.194561937472867
2476 2477 -0.19456193747286715
2477 2477 0.4959227749804054
2478 2477 -0.19508311638572345
2477 2478 -0.19508311638572345
2478 2478 0.49656726544055024
2479 2478 -0.19477330816641666
2478 2479 -0.19477330816641678
2479 2479 0.500915615406544
2480 2479 -0.19322270954560083
2479 2480 -0.19322270954560072
2480 2480 0.4960178801628789
2481 2480 -0.19412508594407082
2480 2481 -0.19412508594407088
2481 2481 0.489573849991367
2482 2481 -0.19680766692594753
2481 2482 -0.19680766692594756
2482 2482 0.5035528671369209
2483 2482 0.19677495724419464
2482 2483 0.19677495724419444
2483 2483 0.5001601051872484
2484 2483 -0.19218671251619787
2483 2484 -0.19218671251619776
2484 2484 0.49919042049959883
2485 2484 -0.19493081813230995
2484 2485 -0.19493081813231003
2485 2485 0.5079844412256831
2486 2485 0.1983881490392678
2485 2486 0.19838814903926777
2486 2486 0.5032750105465683
2487 2486 -0.19734485964621878
2486 2487 -0.1973448596462188
2487 2487 0.49980203276578916
2488 2487 0.19540510164992445
2487 2488 0.19540510164992428
2488 2488 0.4986688094034701
2489 2488 -0.19418064987408315
2488 2489 -0.19418064987408326
2489 2489 0.5007420877827428
2490 2489 -0.19824519126821935
2489 2490 -0.1982451912682193
2490 2490 0.49887115940717675
2491 2490 -0.19759985595719196
2490 2491 -0.19759985595719187
2491 2491 0.50085603426901
2492 2491 0.19335892852138248
2491 2492 0.19335892852138253
2492 2492 0.5058685288450904
2493 2492 0.19840871117309142
2492 2493 0.19840871117309153
2493 2493 0.4927868470955557
2494 2493 0.19899825017877587
2493 2494 0.19899825017877576
2494 2494 0.499684074695563
2495 2494 -0.19685009816843485
2494 2495 -0.19685009816843493
2495 2495 0.5011313215295004
2496 2495 -0.19678963383254414
2495 2496 -0.196789633832544
2496 2496 0.5063198890050522
2497 2496 -0.19543672225166445
2496 2497 -0.1954367222516645
2497 2497 0.5003188438488331
2498 2497 -0.19507180139955932
2497 2498 -0.19507180139955926
2498 2498 0.4999653833852643
2499 2498 -0.19393257380709913
2498 2499 -0.19393257380709927
2499 2499 0.49603549567953986
2500 2499 -0.19342095173994486
2499 2500 -0.1934209517399449
2500 2500 0.5034463943488774
2501 2500 -0.19430554954489146
2500 2501 -0.19430554954489146
2501 2501 0.49573522025523264
2502 2501 -0.19090107635147308
2501 2502 -0.19090107635147305
2502 2502 0.5024231720035378
2503 2502 -0.20097889241234035
2502 2503 -0.2009788924123402
2503 2503 0.5019784065438306
2504 2503 0.1950477044164693
2503 2504 0.19504770441646924
2504 2504 0.4991872487870525
2505 2504 -0.19515864481429807
2504 2505 -0.19515864481429815
2505 2505 0.49760458687198705
2506 2505 -0.19381413542807008
2505 2506 -0.19381413542807005
2506 2506 0.49603699920392225
2507 2506 0.19229002042664342
2506 2507 0.19229002042664348
2507 2507 0.5025030029231348
2508 2507 -0.19362138358016212
2507 2508 -0.19362138358016195
2508 2508 0.49672641985347604
2509 2508 0.19272393991574094
2508 2509 0.19272393991574088
2509 2509 0.5020216757821597
2510 2509 0.19441849756506682
2509 2510 0.19441849756506674
2510 2510 0.5082039543373787
2511 2510 0.19581141171291247
2510 2511 0.19581141171291228
2511 2511 0.4993124002966067
2512 2511 -0.19003774624858377
2511 2512 -0.19003774624858347
2512 2512 0.5019392395900056
2513 2512 -0.19576275712291133
2512 2513 -0.19576275712291122
2513 2513 0.49854749667204756
2514 2513 -0.20038961437774697
2513 2514 -0.20038961437774708
2514 2514 0.5030592732391943
2515 2514 0.19529282134436474
2514 2515 0.19529282134436476
2515 2515 0.49356438258723023
2516 2515 0.19295355280591064
2515 2516 0.1929535528059107
2516 2516 0.5010662543256397
2517 2516 0.19635166856621802
2516 2517 0.1963516685662179
2517 2517 0.49679680635858514
2518 2517 0.19752331141031046
2517 2518 0.1975233114103106
2518 2518 0.4979637156508666
2519 2518 0.19531243267998538
2518 2519 0.19531243267998546
2519 2519 0.4972002458286475
2520 2519 -0.19556533183424504
2519 2520 -0.1955653318342451
2520 2520 0.506308620186291
2521 2520 -0.19509631627484314
2520 2521 -0.19509631627484308
2521 2521 0.5023059030021653
2522 2521 0.1947652947703838
2521 2522 0.19476529477038368
2522 2522 0.4923031739113439
2523 2522 0.19035651402797724
2522 2523 0.19035651402797737
2523 2523 0.5059022900419605
2524 2523 -0.19307088829408095
2523 2524 -0.19307088829408087
2524 2524 0.5105144381489389
2525 2524 -0.1888312177352154
2524 2525 -0.18883121773521552
2525 2525 0.512412512850758
2526 2525 0.19378197254069043
2525 2526 0.1937819725406903
2526 2526 0.503771481063632
2527 2526 -0.1926360483760188
2526 2527 -0.1926360483760188
2527 2527 0.5002130813541661
2528 2527 -0.19602114950040436
2527 2528 -0.1960211495004044
2528 2528 0.4949876338977113
2529 2528 -0.19478940468813635
2528 2529 -0.19478940468813644
2529 2529 0.49819902538531824
2530 2529 -0.19857158862090932
2529 2530 -0.19857158862090937
2530 2530 0.506264972409493
2531 2530 0.19286288018107525
2530 2531 0.1928628801810754
2531 2531 0.500676754009268
2532 2531 -0.1926050355530549
2531 2532 -0.19260503555305497
2532 2532 0.5047491638461383
2533 2532 -0.19316804335986879
2532 2533 -0.1931680433598688
2533 2533 0.49182944508538223
2534 2533 -0.1935315953984273
2533 2534 -0.19353159539842735
2534 2534 0.5007109384676962
2535 2534 -0.19194616855318214
2534 2535 -0.19194616855318225
2535 2535 0.49909267807793417
2536 2535 -0.19503076663774355
2535 2536 -0.19503076663774374
2536 2536 0.5008963800411028
2537 2536 -0.19175098085480868
2536 2537 -0.19175098085480877
2537 2537 0.49977535100283493
2538 2537 -0.19564027264196002
2537 2538 -0.19564027264195993
2538 2538 0.49813203537270945
2539 2538 0.19562921381070703
2538 2539 0.195629213810707
2539 2539 0.49353610408824333
2540 2539 -0.18776409133580096
2539 2540 -0.1877640913358008
2540 2540 0.49880265019865005
2541 2540 -0.19344100763840225
2540 2541 -0.19344100763840225
2541 2541 0.489347252288313
2542 2541 0.19316662883640556
2541 2542 0.19316662883640567
2542 2542 0.49773829963162475
2543 2542 -0.19153730750246992
2542 2543 -0.19153730750246992
2543 2543 0.5019814146223206
2544 2543 0.1918787244304956
2543 2544 0.19187872443049567
2544 2544 0.506410665804391
2545 2544 -0.19213288610022788
2544 2545 -0.19213288610022794
2545 2545 0.5021391503539239
2546 2545 0.1947004364519281
2545 2546 0.19470043645192822
2546 2546 0.5024500620343266
2547 2546 0.19420107876689846
2546 2547 0.19420107876689852
2547 2547 0.5008497628409068
2548 2547 -0.19658598058370683
2547 2548 -0.19658598058370697
2548 2548 0.5060124009766768
2549 2548 0.18891266968545573
2548 2549 0.18891266968545567
2549 2549 0.4967449299843102
2550 2549 -0.19656705625016757
2549 2550 -0.19656705625016754
2550 2550 0.5047946883927651
2551 2550 0.19247867136313665
2550 2551 0.19247867136313657
2551 2551 0.4934838238092175
2552 2551 -0.19253650563322625
2551 2552 -0.1925365056332265
2552 2552 0.4988754922843897
2553 2552 0.19171308123222747
2552 2553 0.19171308123222733
2553 2553 0.5036288032914834
2554 2553 -0.19330558007241963
2553 2554 -0.19330558007241966
2554 2554 0.5047548389468764
2555 2554 -0.19260551024417416
2554 2555 -0.19260551024417416
2555 2555 0.5015021131452808
2556 2555 -0.19206523638144513
2555 2556 -0.192065236381445
2556 2556 0.5083899107751153
2557 2556 -0.19020505293604717
2556 2557 -0.19020505293604723
2557 2557 0.5012516721639799
2558 2557 -0.18982388392377855
2557 2558 -0.1898238839237785
2558 2558 0.5012697512647701
2559 2558 0.19005500015477045
2558 2559 0.19005500015477036
2559 2559 0.4934653152002572
2560 2559 0.1929602476682465
2559 2560 0.19296024766824665
2560 2560 0.500416811521551
2561 2560 -0.1919555029712826
2560 2561 -0.19195550297128258
2561 2561 0.49098908442750533
2562 2561 -0.19627791805562353
2561 2562 -0.19627791805562353
2562 2562 0.5082606149141876
2563 2562 0.19259986449200422
2562 2563 0.19259986449200436
2563 2563 0.5027968003790868
2564 2563 -0.1933722344888112
2563 2564 -0.19337223448881108
2564 2564 0.5028343502243272
2565 2564 0.18979035339452088
2564 2565 0.18979035339452094
2565 2565 0.49770253842319584
2566 2565 -0.19078336938845464
2565 2566 -0.19078336938845458
2566 2566 0.49716827503715255
2567 2566 0.19614283498354007
2566 2567 0.19614283498354002
2567 2567 0.4922985890821977
2568 2567 -0.1889155832892995
2567 2568 -0.18891558328929944
2568 2568 0.4935526346082691
2569 2568 -0.19140149000028614
2568 2569 -0.19140149000028622
2569 2569 0.502527095209383
2570 2569 -0.19498541390702562
2569 2570 -0.19498541390702556
2570 2570 0.5010495405261732
2571 2570 0.19064804237131122
2570 2571 0.1906480423713112
2571 2571 0.49943277764179833
2572 2571 0.19422533008827428
2571 2572 0.19422533008827422
2572 2572 0.5065796761401563
2573 2572 -0.19142400365402829
2572 2573 -0.19142400365402826
2573 2573 0.5056431168642542
2574 2573 0.18696843011604422
2573 2574 0.18696843011604422
2574 2574 0.49440304081945874
2575 2574 0.19216109155297306
2574 2575 0.19216109155297306
2575 2575 0.49547986532420696
2576 2575 -0.19440651455834812
2575 2576 -0.19440651455834812
2576 2576 0.501268384789356
2577 2576 -0.18884810641331826
2576 2577 -0.18884810641331828
2577 2577 0.5045073110269058
2578 2577 0.19178181071466616
2577 2578 0.19178181071466632
2578 2578 0.4983037701142524
2579 2578 0.19302292327988269
2578 2579 0.19302292327988255
2579 2579 0.5017000684571219
2580 2579 0.19059476534265143
2579 2580 0.19059476534265152
2580 2580 0.5028040473899124
2581 2580 0.1856343801272691
2580 2581 0.18563438012726902
2581 2581 0.4989313178928607
2582 2581 0.18981752881446481
2581 2582 0.18981752881446481
2582 2582 0.4965393858964672
2583 2582 0.19452273714176535
2582 2583 0.19452273714176527
2583 2583 0.5061279845072042
2584 2583 -0.18717638328959996
2583 2584 -0.1871763832896001
2584 2584 0.5014410350886922
2585 2584 0.1903161692452908
2584 2585 0.19031616924529088
2585 2585 0.49765513497343816
2586 2585 0.1876313642573508
2585 2586 0.18763136425735066
2586 2586 0.5018384309489929
2587 2586 -0.19021258741928593
2586 2587 -0.190212587419286
2587 2587 0.49377726313380277
2588 2587 0.18495986272794565
2587 2588 0.18495986272794557
2588 2588 0.4921402110605718
2589 2588 -0.19106630610188197
2588 2589 -0.19106630610188183
2589 2589 0.5001953973563618
2590 2589 0.1898246762387763
2589 2590 0.1898246762387763
2590 2590 0.4972653504983166
2591 2590 -0.19121697237862756
2590 2591 -0.19121697237862756
2591 2591 0.502945799302658
2592 2591 0.18791951022849207
2591 2592 0.18791951022849193
2592 2592 0.4985901155922686
2593 2592 -0.18898403339961298
2592 2593 -0.18898403339961295
2593 2593 0.498799335460204
2594 2593 -0.1877722560126986
2593 2594 -0.18777225601269854
2594 2594 0.5050374765869592
2595 2594 -0.1938817391378841
2594 2595 -0.19388173913788423
2595 2595 0.5014465688563239
2596 2595 0.1888411396927918
2595 2596 0.18884113969279184
2596 2596 0.49977463952014767
2597 2596 0.19106211696180464
2596 2597 0.19106211696180453
2597 2597 0.49893781913235846
2598 2597 0.18983681496873767
2597 2598 0.18983681496873772
2598 2598 0.5041122067778105
2599 2598 0.19090456001356618
2598 2599 0.1909045600135662
2599 2599 0.5033136512741283
2600 2599 -0.18808633010300158
2599 2600 -0.1880863301030014
2600 2600 0.4969043246773757
2601 2600 0.19315015000111238
2600 2601 0.19315015000111224
2601 2601 0.5059243199764764
2602 2601 -0.19043111654024383
2601 2602 -0.19043111654024378
2602 2602 0.5026743470237905
2603 2602 -0.1879224666504695
2602 2603 -0.18792246665046936
2603 2603 0.5039295251770326
2604 2603 -0.19208765614316753
2603 2604 -0.1920876561431674
2604 2604 0.5007099554054208
2605 2604 -0.18939093325858822
2604 2605 -0.18939093325858822
2605 2605 0.5025821206117015
2606 2605 -0.1918850794524967
2605 2606 -0.19188507945249664
2606 2606 0.5022969860203872
2607 2606 -0.19083343190789814
2606 2607 -0.19083343190789828
2607 2607 0.4893084262987448
2608 2607 0.18714422033626116
2607 2608 0.1871442203362611
2608 2608 0.4945454665685702
2609 2608 -0.18869916856547345
2608 2609 -0.18869916856547342
2609 2609 0.5054688614007437
2610 2609 0.19064001413296652
2609 2610 0.1906400141329665
2610 2610 0.5025300771868568
2611 2610 -0.19001120821341005
2610 2611 -0.19001120821340997
2611 2611 0.5075961658733048
2612 2611 0.18782433980398644
2611 2612 0.18782433980398652
2612 2612 0.4923974350896988
2613 2612 0.19025983741454883
2612 2613 0.19025983741454872
2613 2613 0.5122384972047972
2614 2613 0.19010062452501192
2613 2614 0.1901006245250118
2614 2614 0.4939405223949241
2615 2614 -0.18524011657002
2614 2615 -0.1852401165700202
2615 2615 0.5033289565256461
2616 2615 -0.18883989631734852
2615 2616 -0.1888398963173486
2616 2616 0.5041432949791856
2617 2616 0.19077361052965172
2616 2617 0.19077361052965175
2617 2617 0.5029249870553776
2618 2617 0.18630850030159754
2617 2618 0.18630850030159762
2618 2618 0.5009411223507985
2619 2618 -0.19570416877032756
2618 2619 -0.19570416877032762
2619 2619 0.49786644580903927
2620 2619 -0.19003517324875668
2619 2620 -0.19003517324875674
2620 2620 0.502076206728431
2621 2620 -0.18570838532563308
2620 2621 -0.18570838532563316
2621 2621 0.5013202752267234
2622 2621 -0.18939398941607946
2621 2622 -0.18939398941607952
2622 2622 0.4988190627462044
2623 2622 0.18897368592884975
2622 2623 0.18897368592884967
2623 2623 0.48610264858613417
2624 2623 0.1896083924053741
2623 2624 0.1896083924053742
2624 2624 0.500957470807557
2625 2624 -0.18995805359611853
2624 2625 -0.18995805359611856
2625 2625 0.49837137414576427
2626 2625 0.18532890999338417
2625 2626 0.18532890999338428
2626 2626 0.495212870449343
2627 2626 -0.19465779946995204
2626 2627 -0.1946577994699523
2627 2627 0.4944120778378315
2628 2627 -0.1879384015100034
2627 2628 -0.18793840151000338
2628 2628 0.490107238576225
2629 2628 -0.18864165787808077
2628 2629 -0.18864165787808085
2629 2629 0.4940356053215984
2630 2629 -0.1904274915963963
2629 2630 -0.1904274915963963
2630 2630 0.5019792259392246
2631 2630 0.18745396239501627
2630 2631 0.18745396239501638
2631 2631 0.49490855673295064
2632 2631 0.18729025665058804
2631 2632 0.187290256650588
2632 2632 0.5019340437821931
2633 2632 -0.19014368560263503
2632 2633 -0.1901436856026351
2633 2633 0.4945260469293349
2634 2633 -0.18753112470931246
2633 2634 -0.1875311247093125
2634 2634 0.49493862314863646
2635 2634 -0.18883046786637558
2634 2635 -0.18883046786637558
2635 2635 0.49859789900858337
2636 2635 0.1892097202465643
2635 2636 0.18920972024656446
2636 2636 0.498368522165418
2637 2636 -0.18656972562026247
2636 2637 -0.18656972562026236
2637 2637 0.5005710345752945
2638 2637 -0.1825673529185733
2637 2638 -0.18256735291857332
2638 2638 0.4929165821767053
2639 2638 0.18745919225318627
2638 2639 0.18745919225318636
2639 2639 0.5015257572707698
2640 2639 0.18896348216909245
2639 2640 0.18896348216909245
2640 2640 0.5036491150124154
2641 2640 0.19059438313930685
2640 2641 0.19059438313930674
2641 2641 0.511210730907
2642 2641 -0.18520994437223132
2641 2642 -0.18520994437223132
2642 2642 0.4884632741407404
2643 2642 0.18795263798847445
2642 2643 0.18795263798847436
2643 2643 0.4993946624996044
2644 2643 0.1905459199093138
2643 2644 0.19054591990931383
2644 2644 0.4963317853066393
2645 2644 0.18820907904619016
2644 2645 0.18820907904619014
2645 2645 0.4966202683046731
2646 2645 -0.1874884823344405
2645 2646 -0.18748848233444038
2646 2646 0.4997495800064783
2647 2646 -0.18409070745791795
2646 2647 -0.18409070745791795
2647 2647 0.5064301213922797
2648 2647 -0.1898838847611528
2647 2648 -0.18988388476115248
2648 2648 0.4957892761384446
2649 2648 0.18793682001917061
2648 2649 0.1879368200191705
2649 2649 0.4992378527409309
2650 2649 -0.1872795739862988
2649 2650 -0.1872795739862988
2650 2650 0.495862792376625
2651 2650 0.1881366427136849
2650 2651 0.18813664271368505
2651 2651 0.5050877262597139
2652 2651 0.18903561296192664
2651 2652 0.1890356129619267
2652 2652 0.4964582752935401
2653 2652 -0.18847952843515461
2652 2653 -0.1884795284351547
2653 2653 0.5026789868343946
2654 2653 0.19000383592350917
2653 2654 0.1900038359235092
2654 2654 0.4993660324320871
2655 2654 0.1893148592431651
2654 2655 0.18931485924316513
2655 2655 0.5004462909125292
2656 2655 -0.18663030274891249
2655 2656 -0.1866303027489125
2656 2656 0.5016393659020965
2657 2656 0.18803246377123517
2656 2657 0.18803246377123517
2657 2657 0.5024297810793423
2658 2657 0.18990227369258544
2657 2658 0.18990227369258542
2658 2658 0.49701876291453295
2659 2658 -0.18580785654549753
2658 2659 -0.1858078565454974
2659 2659 0.5026857384791481
2660 2659 -0.1879332933915266
2659 2660 -0.18793329339152667
2660 2660 0.5048985694947472
2661 2660 -0.1871338045817967
2660 2661 -0.18713380458179663
2661 2661 0.49811602637860186
2662 2661 0.18729007011305787
2661 2662 0.18729007011305782
2662 2662 0.4987737832136955
2663 2662 -0.1882770350465079
2662 2663 -0.18827703504650772
2663 2663 0.49240847138250676
2664 2663 -0.18552032848355537
2663 2664 -0.18552032848355526
2664 2664 0.5060581124967594
2665 2664 -0.18892533586014904
2664 2665 -0.18892533586014895
2665 2665 0.4987743959813029
2666 2665 0.18856334035401467
2665 2666 0.1885633403540147
2666 2666 0.5047437590647219
2667 2666 0.18771105289736398
2666 2667 0.18771105289736384
2667 2667 0.5022761499424624
2668 2667 0.1844686834252927
2667 2668 0.18446868342529296
2668 2668 0.5067931391537235
2669 2668 -0.18639847779059265
2668 2669 -0.18639847779059254
2669 2669 0.4959265113414027
2670 2669 0.18959049899220967
2669 2670 0.18959049899220964
2670 2670 0.4927776263387539
2671 2670 0.18613173496330973
2670 2671 0.18613173496330987
2671 2671 0.504435289247056
2672 2671 -0.1822843991472212
2671 2672 -0.1822843991472212
2672 2672 0.49772412045811676
2673 2672 -0.18315738056974828
2672 2673 -0.1831573805697482
2673 2673 0.5029914696310172
2674 2673 -0.1888364223173464
2673 2674 -0.1888364223173465
2674 2674 0.4965592328370978
2675 2674 0.1835371529021967
2674 2675 0.18353715290219674
2675 2675 0.5008961155519429
2676 2675 0.19031798221611562
2675 2676 0.19031798221611568
2676 2676 0.495906774751231
2677 2676 -0.18190283005802865
2676 2677 -0.18190283005802865
2677 2677 0.5004472742833777
2678 2677 0.18719145683698715
2677 2678 0.18719145683698707
2678 2678 0.5054726971424914
2679 2678 -0.18528097295196375
2678 2679 -0.18528097295196372
2679 2679 0.4996354799264051
2680 2679 0.1828774611123808
2679 2680 0.18287746111238068
2680 2680 0.5032297879820471
2681 2680 0.18671463677665334
2680 2681 0.1867146367766534
2681 2681 0.49946993325264094
2682 2681 -0.18393230922733775
2681 2682 -0.18393230922733772
2682 2682 0.49562900723426184
2683 2682 -0.18691772946728588
2682 2683 -0.18691772946728583
2683 2683 0.49470502029465385
2684 2683 0.1835100132747384
2683 2684 0.1835100132747383
2684 2684 0.5016621712927767
2685 2684 -0.18607544153030012
2684 2685 -0.18607544153030017
2685 2685 0.4966901569927817
2686 2685 -0.18716579188221144
2685 2686 -0.1871657918822114
2686 2686 0.5043523758507925
2687 2686 -0.18822949737729877
2686 2687 -0.18822949737729858
2687 2687 0.5011271393394074
2688 2687 0.18792665431373246
2687 2688 0.18792665431373246
2688 2688 0.49952375132722027
2689 2688 0.18164165752891165
2688 2689 0.1816416575289117
2689 2689 0.4907042574982938
2690 2689 0.18439118518447284
2689 2690 0.1843911851844729
2690 2690 0.5037756410738637
2691 2690 -0.1859372234829147
2690 2691 -0.1859372234829149
2691 2691 0.5101566575057177
2692 2691 -0.1854048411504327
2691 2692 -0.18540484115043276
2692 2692 0.4964666095520691
2693 2692 0.18775717646639103
2692 2693 0.18775717646639095
2693 2693 0.5012243489912965
2694 2693 0.18665825100649108
2693 2694 0.18665825100649105
2694 2694 0.49944093890294183
2695 2694 0.1815710966342534
2694 2695 0.18157109663425336
2695 2695 0.5017939631636789
2696 2695 -0.1846410675280081
2695 2696 -0.1846410675280081
2696 2696 0.5022943796996283
2697 2696 0.1846432481122539
2696 2697 0.18464324811225385
2697 2697 0.5016002863484859
2698 2697 0.1832038088125484
2697 2698 0.18320380881254822
2698 2698 0.5007972624054392
2699 2698 0.17786134156801173
2698 2699 0.17786134156801175
2699 2699 0.49256632847969173
2700 2699 0.1849189728729042
2699 2700 0.1849189728729041
2700 2700 0.5026510135284069
2701 2700 0.18463971547636698
2700 2701 0.18463971547636704
2701 2701 0.4984354227624027
2702 2701 -0.18632886355912165
2701 2702 -0.1863288635591217
2702 2702 0.5036506020841444
2703 2702 0.18376692205832668
2702 2703 0.1837669220583268
2703 2703 0.4998564317967016
2704 2703 0.18797898815137368
2703 2704 0.18797898815137362
2704 2704 0.5044011071941916
2705 2704 -0.18595835789580412
2704 2705 -0.18595835789580414
2705 2705 0.4920355485869827
2706 2705 -0.18213333645560234
2705 2706 -0.1821333364556024
2706 2706 0.5104358559571415
2707 2706 -0.18636528549549425
2706 2707 -0.18636528549549408
2707 2707 0.5060429817001817
2708 2707 0.18555032890737472
2707 2708 0.18555032890737472
2708 2708 0.4952304200350687
2709 2708 -0.18540339504427525
2708 2709 -0.1854033950442752
2709 2709 0.49113656335393385
2710 2709 0.18207409822074785
2709 2710 0.18207409822074783
2710 2710 0.49140210254636246
2711 2710 -0.18218147655602313
2710 2711 -0.18218147655602315
2711 2711 0.5004777300120027
2712 2711 0.18230902258505524
2711 2712 0.1823090225850552
2712 2712 0.5030495043928245
2713 2712 0.18508477364362794
2712 2713 0.1850847736436279
2713 2713 0.49957891022482176
2714 2713 -0.1807102565422545
2713 2714 -0.18071025654225462
2714 2714 0.49939725686446457
2715 2714 0.18567447306343013
2714 2715 0.18567447306343024
2715 2715 0.5065025991558252
2716 2715 -0.17883235792439417
2715 2716 -0.17883235792439425
2716 2716 0.5004211365238319
2717 2716 -0.18591195423821538
2716 2717 -0.18591195423821533
2717 2717 0.5050231062874275
2718 2717 -0.18374352417043355
2717 2718 -0.18374352417043344
2718 2718 0.49150608657123107
2719 2718 0.18464838937683772
2718 2719 0.1846483893768378
2719 2719 0.504088129061572
2720 2719 0.18271716408000407
2719 2720 0.18271716408000402
2720 2720 0.5038572206669854
2721 2720 -0.18595511529325362
2720 2721 -0.1859551152932536
2721 2721 0.4970745285825224
2722 2721 -0.18075975585121187
2721 2722 -0.18075975585121187
2722 2722 0.5008426296660253
2723 2722 0.18361965424350538
2722 2723 0.1836196542435055
2723 2723 0.5013931354316324
2724 2723 0.18560902958307665
2723 2724 0.18560902958307668
2724 2724 0.5092981851342581
2725 2724 0.18108330136006207
2724 2725 0.18108330136006218
2725 2725 0.5041389669967613
2726 2725 -0.1819773395589027
2725 2726 -0.18197733955890266
2726 2726 0.49539777632275805
2727 2726 0.1826534297346776
2726 2727 0.18265342973467735
2727 2727 0.5014581054098575
2728 2727 0.181521366199365
2727 2728 0.181521366199365
2728 2728 0.5055405442753897
2729 2728 0.1795462572881563
2728 2729 0.17954625728815635
2729 2729 0.4894102604656793
2730 2729 -0.18500185516915776
2729 2730 -0.18500185516915763
2730 2730 0.49577685202661625
2731 2730 -0.18198152370933476
2730 2731 -0.18198152370933493
2731 2731 0.4998030623807149
2732 2731 -0.18500458873392467
2731 2732 -0.18500458873392456
2732 2732 0.49256001850756337
2733 2732 -0.1814536901195476
2732 2733 -0.18145369011954754
2733 2733 0.5039314385247396
2734 2733 -0.18307061713490724
2733 2734 -0.18307061713490722
2734 2734 0.5035647553242123
2735 2734 -0.18267944822274115
2734 2735 -0.18267944822274118
2735 2735 0.4999704760144851
2736 2735 -0.18125290606357775
2735 2736 -0.18125290606357755
2736 2736 0.4976720160047435
2737 2736 0.18176189797674797
2736 2737 0.1817618979767479
2737 2737 0.4978073271225431
2738 2737 0.18158365204993002
2737 2738 0.18158365204993002
2738 2738 0.5067321405679006
2739 2738 0.18296174648689878
2738 2739 0.18296174648689875
2739 2739 0.49680432749836956
2740 2739 -0.18218832590215525
2739 2740 -0.1821883259021552
2740 2740 0.49116009900710533
2741 2740 -0.18046032711462442
2740 2741 -0.18046032711462434
2741 2741 0.5048215263501601
2742 2741 -0.18544926957511335
2741 2742 -0.18544926957511335
2742 2742 0.5010415105822688
2743 2742 -0.17610608771190225
2742 2743 -0.17610608771190217
2743 2743 0.4882021833188104
2744 2743 -0.1817796075245584
2743 2744 -0.1817796075245584
2744 2744 0.5038270639864076
2745 2744 -0.181783143466316
2744 2745 -0.18178314346631608
2745 2745 0.4894661029550492
2746 2745 -0.1816843432188748
2745 2746 -0.18168434321887478
2746 2746 0.5088334329376141
2747 2746 -0.18116545600125275
2746 2747 -0.18116545600125272
2747 2747 0.4990436934703161
2748 2747 -0.18218663033681412
2747 2748 -0.1821866303368142
2748 2748 0.5007626509984102
2749 2748 0.18286561817605457
2748 2749 0.18286561817605448
2749 2749 0.49638124862516925
2750 2749 0.18073349202823782
2749 2750 0.1807334920282377
2750 2750 0.4993497717997299
2751 2750 -0.18286331567653574
2750 2751 -0.18286331567653574
2751 2751 0.5095652873986339
2752 2751 -0.18397660485040396
2751 2752 -0.18397660485040396
2752 2752 0.5016728094777407
2753 2752 0.17912287742850594
2752 2753 0.17912287742850597
2753 2753 0.5010611425334136
2754 2753 -0.17851731521439784
2753 2754 -0.17851731521439787
2754 2754 0.4922710482760941
2755 2754 0.17943229289835197
2754 2755 0.17943229289835202
2755 2755 0.5001414579146277
2756 2755 -0.18388317103226243
2755 2756 -0.18388317103226234
2756 2756 0.49628344437110217
2757 2756 0.18046195784057784
2756 2757 0.18046195784057772
2757 2757 0.5009182921682744
2758 2757 -0.18177660150570743
2757 2758 -0.18177660150570746
2758 2758 0.51058876899802
2759 2758 0.18309237052560626
2758 2759 0.1830923705256063
2759 2759 0.4951289319884514
2760 2759 0.18281155480445474
2759 2760 0.18281155480445477
2760 2760 0.5000670027657509
2761 2760 -0.18416153923420642
2760 2761 -0.18416153923420647
2761 2761 0.503464053313576
2762 2761 -0.18315462897373572
2761 2762 -0.18315462897373572
2762 2762 0.4987548483558005
2763 2762 0.18071549985042568
2762 2763 0.18071549985042581
2763 2763 0.49705004181141144
2764 2763 0.17904944486778301
2763 2764 0.17904944486778293
2764 2764 0.5029332151419299
2765 2764 -0.1820039111904692
2764 2765 -0.18200391119046921
2765 2765 0.49518419349320936
2766 2765 -0.18099213858342633
2765 2766 -0.1809921385834263
2766 2766 0.5005743445872897
2767 2766 -0.1789433478161295
2766 2767 -0.17894334781612947
2767 2767 0.5082143241513193
2768 2767 0.18031629917290054
2767 2768 0.1803162991729005
2768 2768 0.5000319623452101
2769 2768 0.18172121709880662
2768 2769 0.18172121709880668
2769 2769 0.4979067506843583
2770 2769 0.1776748026234992
2769 2770 0.1776748026234993
2770 2770 0.500483521422416
2771 2770 -0.1835069257176138
2770 2771 -0.1835069257176138
2771 2771 0.49228282918571675
2772 2771 0.17896236845386143
2771 2772 0.1789623684538614
2772 2772 0.50574105657193
2773 2772 0.1821159844439666
2772 2773 0.18211598444396662
2773 2773 0.5086631791888571
2774 2773 0.1782002708995213
2773 2774 0.17820027089952128
2774 2774 0.5000871929803357
2775 2774 -0.18009175782742087
2774 2775 -0.18009175782742087
2775 2775 0.4993487472230681
2776 2775 0.18332742291204923
2775 2776 0.18332742291204937
2776 2776 0.5023428266465464
2777 2776 -0.17890205001336323
2776 2777 -0.17890205001336326
2777 2777 0.4989137434149323
2778 2777 -0.18193967352003318
2777 2778 -0.18193967352003312
2778 2778 0.5025435342048941
2779 2778 0.18267306174692335
2778 2779 0.18267306174692355
2779 2779 0.5006217970436181
2780 2779 0.17866621684736692
2779 2780 0.17866621684736708
2780 2780 0.49799492420641145
2781 2780 0.18111523408991934
2780 2781 0.1811152340899194
2781 2781 0.501795887282825
2782 2781 -0.17649535441961373
2781 2782 -0.1764953544196135
2782 2782 0.5008868929239144
2783 2782 -0.17932979747969244
2782 2783 -0.1793297974796923
2783 2783 0.5061130699959205
2784 2783 -0.1803584934776788
2783 2784 -0.1803584934776788
2784 2784 0.5002009382494323
2785 2784 -0.17640937420993844
2784 2785 -0.17640937420993846
2785 2785 0.4990218380147442
2786 2785 0.1817382837463056
2785 2786 0.18173828374630555
2786 2786 0.5029629314122775
2787 2786 -0.17708793057499364
2786 2787 -0.17708793057499367
2787 2787 0.4967864687256681
2788 2787 -0.18038007577505433
2787 2788 -0.18038007577505435
2788 2788 0.49813706661872187
2789 2788 -0.1808094726391746
2788 2789 -0.18080947263917457
2789 2789 0.4998876426911366
2790 2789 -0.18053689462939507
2789 2790 -0.180536894629395
2790 2790 0.49874804189885347
2791 2790 -0.18085051010517253
2790 2791 -0.18085051010517253
2791 2791 0.5010306140269046
2792 2791 -0.17533994725359708
2791 2792 -0.17533994725359714
2792 2792 0.5025601985212784
2793 2792 0.1822856037372382
2792 2793 0.1822856037372381
2793 2793 0.5020713845197795
2794 2793 0.17544310866105053
2793 2794 0.1754431086610505
2794 2794 0.49863837633932007
2795 2794 -0.18281847840343132
2794 2795 -0.18281847840343143
2795 2795 0.496681799357849
2796 2795 0.1827366359681522
2795 2796 0.18273663596815226
2796 2796 0.5121549176906068
2797 2796 -0.17783692415619876
2796 2797 -0.17783692415619873
2797 2797 0.4879778857374685
2798 2797 0.17871290702645048
2797 2798 0.1787129070264506
2798 2798 0.5013563776262567
2799 2798 0.1784985432163253
2798 2799 0.17849854321632533
2799 2799 0.5039759500729584
2800 2799 0.1761877539229268
2799 2800 0.17618775392292685
2800 2800 0.49452410784907863
2801 2800 -0.17506170369409058
2800 2801 -0.17506170369409066
2801 2801 0.4966465517949789
2802 2801 0.1780007568425423
2801 2802 0.1780007568425424
2802 2802 0.49665369310361235
2803 2802 -0.1755750032385127
2802 2803 -0.17557500323851286
2803 2803 0.5015787913634242
2804 2803 -0.17801186361408328
2803 2804 -0.17801186361408317
2804 2804 0.49480123284217714
2805 2804 0.18314930908429972
2804 2805 0.18314930908429977
2805 2805 0.5024014098579874
2806 2805 0.17380534905008338
2805 2806 0.17380534905008355
2806 2806 0.5053346598764115
2807 2806 0.18281260071418054
2806 2807 0.18281260071418043
2807 2807 0.5015925351021964
2808 2807 -0.17652876061425882
2807 2808 -0.17652876061425857
2808 2808 0.49855873357193603
2809 2808 0.17476264306947176
2808 2809 0.17476264306947165
2809 2809 0.4973169618236225
2810 2809 0.17872495630514906
2809 2810 0.178724956305149
2810 2810 0.49884615664808357
2811 2810 -0.17969436302661618
2810 2811 -0.1796943630266161
2811 2811 0.5076216917675547
2812 2811 0.17419173245495317
2811 2812 0.17419173245495306
2812 2812 0.49766202110502183
2813 2812 -0.17591623988135854
2812 2813 -0.17591623988135852
2813 2813 0.4948991164096687
2814 2813 0.17688331131501372
2813 2814 0.17688331131501375
2814 2814 0.5028030064534701
2815 2814 -0.17908634682504113
2814 2815 -0.17908634682504107
2815 2815 0.495622457297268
2816 2815 -0.1796938387754785
2815 2816 -0.17969383877547868
2816 2816 0.5008721321880528
2817 2816 0.1811755128274004
2816 2817 0.18117551282740035
2817 2817 0.49585047614033523
2818 2817 -0.17461704397712907
2817 2818 -0.17461704397712907
2818 2818 0.5057592433857908
2819 2818 0.17953884459845532
2818 2819 0.17953884459845545
2819 2819 0.49632581766789585
2820 2819 -0.1760486767021554
2819 2820 -0.17604867670215554
2820 2820 0.5015299807433901
2821 2820 0.17934972762627788
2820 2821 0.179349727626278
2821 2821 0.49927632268602284
2822 2821 -0.17621489325813564
2821 2822 -0.1762148932581356
2822 2822 0.49794045208025217
2823 2822 0.17598674919869486
2822 2823 0.17598674919869498
2823 2823 0.4995469926685291
2824 2823 -0.1733713897756167
2823 2824 -0.17337138977561667
2824 2824 0.4975631934056767
2825 2824 -0.17613146448760392
2824 2825 -0.17613146448760372
2825 2825 0.49986776728688664
2826 2825 0.1757887200223699
2825 2826 0.17578872002236998
2826 2826 0.4942518752577603
2827 2826 0.179372023964082
2826 2827 0.179372023964082
2827 2827 0.49442919582454686
2828 2827 0.17609358110248546
2827 2828 0.17609358110248563
2828 2828 0.4972830717848776
2829 2828 -0.18031355029834123
2828 2829 -0.18031355029834129
2829 2829 0.4933203224379178
2830 2829 0.17818971529320912
2829 2830 0.1781897152932092
2830 2830 0.5004446718146738
2831 2830 -0.17962876391159058
2830 2831 -0.17962876391159066
2831 2831 0.5004535957612644
2832 2831 -0.17381251178950624
2831 2832 -0.1738125117895063
2832 2832 0.5065415886248938
2833 2832 0.17067504308093603
2832 2833 0.17067504308093606
2833 2833 0.48930652598154156
2834 2833 -0.17309395504949943
2833 2834 -0.17309395504949943
2834 2834 0.5023759182753569
2835 2834 0.1762070673122591
2834 2835 0.17620706731225919
2835 2835 0.51173376363211
2836 2835 -0.18072593543349016
2835 2836 -0.18072593543349016
2836 2836 0.5030157358000433
2837 2836 -0.17076817623504498
2836 2837 -0.170768176235045
2837 2837 0.4914903826777163
2838 2837 -0.17389037429174356
2837 2838 -0.17389037429174353
2838 2838 0.4962121169039329
2839 2838 -0.17871008185524503
2838 2839 -0.17871008185524512
2839 2839 0.5063454431891977
2840 2839 0.1716174918633056
2839 2840 0.1716174918633056
2840 2840 0.49069411584296924
2841 2840 0.1824445905559836
2840 2841 0.18244459055598358
2841 2841 0.4937013806029842
2842 2841 -0.1752012844997215
2841 2842 -0.17520128449972142
2842 2842 0.5055080781596313
2843 2842 -0.1777377121412122
2842 2843 -0.1777377121412121
2843 2843 0.49446114828392174
2844 2843 -0.17692455422621597
2843 2844 -0.17692455422621595
2844 2844 0.5039149911969591
2845 2844 0.17807788831954055
2844 2845 0.1780778883195407
2845 2845 0.5020877420753085
2846 2845 0.17056544703308046
2845 2846 0.1705654470330805
2846 2846 0.503605971509267
2847 2846 0.17328834568320883
2846 2847 0.17328834568320883
2847 2847 0.5062790744190466
2848 2847 -0.17425550976681892
2847 2848 -0.17425550976681903
2848 2848 0.5070207940188814
2849 2848 0.1809195624003553
2848 2849 0.1809195624003553
2849 2849 0.4913036072792357
2850 2849 0.177755538454193
2849 2850 0.17775553845419295
2850 2850 0.5015129245509512
2851 2850 -0.17157469116937346
2850 2851 -0.1715746911693734
2851 2851 0.5097081082392183
2852 2851 -0.17363307293368968
2851 2852 -0.17363307293368968
2852 2852 0.4987077646550441
2853 2852 0.178479564864661
2852 2853 0.17847956486466096
2853 2853 0.5027078682192218
2854 2853 0.1803324966862356
2853 2854 0.18033249668623563
2854 2854 0.4993998313162487
2855 2854 0.17673456993254102
2854 2855 0.17673456993254086
2855 2855 0.5000573920453721
2856 2855 -0.17269540964152272
2855 2856 -0.17269540964152266
2856 2856 0.502349261743648
2857 2856 -0.17825998320744696
2856 2857 -0.1782599832074469
2857 2857 0.5013723510370773
2858 2857 -0.17499608103020112
2857 2858 -0.17499608103020117
2858 2858 0.5051389945350879
2859 2858 -0.17537625832843168
2858 2859 -0.17537625832843162
2859 2859 0.504200983597631
2860 2859 -0.1769918584875425
2859 2860 -0.1769918584875427
2860 2860 0.5019169528287513
2861 2860 -0.1738995371594263
2860 2861 -0.17389953715942627
2861 2861 0.49915420203343264
2862 2861 0.1709051927568406
2861 2862 0.17090519275684057
2862 2862 0.5009456581684231
2863 2862 0.17386724257748842
2862 2863 0.1738672425774883
2863 2863 0.5024411090085987
2864 2863 -0.17723115825748004
2863 2864 -0.17723115825748004
2864 2864 0.5031135835576233
2865 2864 -0.17716534386599847
2864 2865 -0.17716534386599853
2865 2865 0.4984525335387547
2866 2865 0.1737219105115387
2865 2866 0.17372191051153865
2866 2866 0.5156192626337921
2867 2866 -0.17577399444053113
2866 2867 -0.17577399444053105
2867 2867 0.49026283109152075
2868 2867 -0.17189070083674812
2867 2868 -0.17189070083674798
2868 2868 0.5019239972407761
2869 2868 0.17001925307351276
2868 2869 0.1700192530735129
2869 2869 0.49621922203260926
2870 2869 0.1743488239066091
2869 2870 0.174348823906609
2870 2870 0.5028364926550937
2871 2870 -0.17296295831875153
2870 2871 -0.17296295831875158
2871 2871 0.4965885532923486
2872 2871 -0.17462592261901713
2871 2872 -0.17462592261901702
2872 2872 0.4989130806053207
2873 2872 0.17180956723822635
2872 2873 0.17180956723822635
2873 2873 0.4969066150203081
2874 2873 0.17724820456246573
2873 2874 0.1772482045624657
2874 2874 0.4948441884803541
2875 2874 -0.17312885063074565
2874 2875 -0.1731288506307457
2875 2875 0.4992157819618571
2876 2875 0.17448377958248423
2875 2876 0.17448377958248432
2876 2876 0.5058293673643471
2877 2876 0.1751104103606151
2876 2877 0.17511041036061503
2877 2877 0.5059685492432302
2878 2877 -0.17606140553220678
2877 2878 -0.1760614055322068
2878 2878 0.4993333048957306
2879 2878 -0.1753654161405514
2878 2879 -0.1753654161405514
2879 2879 0.5013828621019889
2880 2879 -0.16866872684111722
2879 2880 -0.16866872684111717
2880 2880 0.5106999261505191
2881 2880 0.17615823088435123
2880 2881 0.17615823088435137
2881 2881 0.4949177936325504
2882 2881 0.16862166531395897
2881 2882 0.16862166531395903
2882 2882 0.504101420466549
2883 2882 0.17252956977176584
2882 2883 0.1725295697717659
2883 2883 0.49095197035203686
2884 2883 -0.17355734786916657
2883 2884 -0.17355734786916646
2884 2884 0.5103364054461332
2885 2884 0.17658438830842826
2884 2885 0.1765843883084282
2885 2885 0.5010206961907355
2886 2885 -0.17085735965161183
2885 2886 -0.17085735965161186
2886 2886 0.49877345690400277
2887 2886 -0.16727740775032576
2886 2887 -0.1672774077503258
2887 2887 0.49852861393194187
2888 2887 0.1724696907431856
2887 2888 0.17246969074318558
2888 2888 0.49566033160075806
2889 2888 0.17605069879678703
2888 2889 0.17605069879678698
2889 2889 0.49517331164536305
2890 2889 -0.17144567385734366
2889 2890 -0.17144567385734366
2890 2890 0.48617757932631145
2891 2890 0.17059095254360693
2890 2891 0.17059095254360704
2891 2891 0.501608736943465
2892 2891 -0.17372668816869113
2891 2892 -0.17372668816869105
2892 2892 0.4949200371862685
2893 2892 0.16845943040147718
2892 2893 0.1684594304014772
2893 2893 0.4993878971511679
2894 2893 0.17197910833745636
2893 2894 0.17197910833745642
2894 2894 0.4956553239834836
2895 2894 0.1741231666206776
2894 2895 0.1741231666206776
2895 2895 0.4992773292811589
2896 2895 -0.1721540802876122
2895 2896 -0.17215408028761225
2896 2896 0.5022049066484641
2897 2896 0.1699544326414395
2896 2897 0.16995443264143953
2897 2897 0.5049841164123396
2898 2897 0.17194510314933842
2897 2898 0.17194510314933842
2898 2898 0.5007916230211329
2899 2898 0.16922393495242
2898 2899 0.16922393495242002
2899 2899 0.4970797648852144
2900 2899 -0.17550248748088632
2899 2900 -0.17550248748088634
2900 2900 0.5046966856017316
2901 2900 -0.171679728286561
2900 2901 -0.17167972828656103
2901 2901 0.5024923488594055
2902 2901 0.17368448291836067
2901 2902 0.17368448291836072
2902 2902 0.49839582703098523
2903 2902 -0.16863540252282047
2902 2903 -0.16863540252282044
2903 2903 0.49460995070559016
2904 2903 0.17166700267053953
2903 2904 0.17166700267053953
2904 2904 0.498700354880617
2905 2904 0.16831078705845784
2904 2905 0.16831078705845778
2905 2905 0.5017690061319341
2906 2905 -0.1720319107986243
2905 2906 -0.17203191079862426
2906 2906 0.49194524677995544
2907 2906 -0.16980951886688075
2906 2907 -0.1698095188668808
2907 2907 0.5015670595340546
2908 2907 -0.17328452743159292
2907 2908 -0.17328452743159292
2908 2908 0.4944172419569786
2909 2908 0.17070684285227636
2908 2909 0.17070684285227636
2909 2909 0.504281578220539
2910 2909 -0.17164242223750728
2909 2910 -0.17164242223750728
2910 2910 0.49695543493249983
2911 2910 -0.1740271462207814
2910 2911 -0.1740271462207814
2911 2911 0.5007768807529744
2912 2911 -0.17283889994267332
2911 2912 -0.1728388999426734
2912 2912 0.5048142762488645
2913 2912 -0.17027912889574218
2912 2913 -0.17027912889574223
2913 2913 0.4963436756814655
2914 2913 0.17073328436515572
2913 2914 0.17073328436515553
2914 2914 0.5004238845724125
2915 2914 -0.1757923040155827
2914 2915 -0.17579230401558274
2915 2915 0.5007788705132974
2916 2915 -0.1669510521392452
2915 2916 -0.16695105213924527
2916 2916 0.5044753257727354
2917 2916 0.17407119660424705
2916 2917 0.17407119660424705
2917 2917 0.5046022343578598
2918 2917 0.17316792045722304
2917 2918 0.173167920457223
2918 2918 0.5019286957094088
2919 2918 0.16790287299137205
2918 2919 0.16790287299137202
2919 2919 0.4981256894834275
2920 2919 0.1718417920569855
2919 2920 0.17184179205698555
2920 2920 0.5041852797082396
2921 2920 0.17236122397511358
2920 2921 0.17236122397511353
2921 2921 0.49847859827004704
2922 2921 -0.17241548885115898
2921 2922 -0.17241548885115904
2922 2922 0.5002557379996553
2923 2922 0.17347634415355095
2922 2923 0.1734763441535511
2923 2923 0.5002241334192554
2924 2923 -0.17103684811064307
2923 2924 -0.17103684811064304
2924 2924 0.5001525219193625
2925 2924 0.16706355971805625
2924 2925 0.16706355971805617
2925 2925 0.5018310268141585
2926 2925 0.16924359323029634
2925 2926 0.16924359323029634
2926 2926 0.5105671093186972
2927 2926 0.17191230843473837
2926 2927 0.17191230843473837
2927 2927 0.4975789809350443
2928 2927 -0.16909592686190475
2927 2928 -0.16909592686190483
2928 2928 0.5055173709281913
2929 2928 0.17217693542027607
2928 2929 0.17217693542027604
2929 2929 0.4893386520121992
2930 2929 0.17311695237337849
2929 2930 0.17311695237337843
2930 2930 0.49211186349610303
2931 2930 0.16956036175056158
2930 2931 0.1695603617505614
2931 2931 0.4919516172825373
2932 2931 0.17016047239970114
2931 2932 0.17016047239970108
2932 2932 0.5065564324258918
2933 2932 0.17310630468497598
2932 2933 0.17310630468497595
2933 2933 0.5042715847518711
2934 2933 -0.16961128674247708
2933 2934 -0.1696112867424771
2934 2934 0.491770165430666
2935 2934 -0.16862242666908897
2934 2935 -0.1686224266690891
2935 2935 0.5005986240452425
2936 2935 0.1668079071931602
2935 2936 0.16680790719316024
2936 2936 0.5037671470887869
2937 2936 0.17037494226050945
2936 2937 0.17037494226050942
2937 2937 0.4925756606859792
2938 2937 -0.16738090522399768
2937 2938 -0.16738090522399773
2938 2938 0.5016752794955655
2939 2938 0.17476866867094268
2938 2939 0.1747686686709427
2939 2939 0.495578668872459
2940 2939 -0.16987941854127103
2939 2940 -0.1698794185412711
2940 2940 0.503016722116507
2941 2940 -0.17116660788285484
2940 2941 -0.17116660788285484
2941 2941 0.5111858015794827
2942 2941 -0.173427196834277
2941 2942 -0.173427196834277
2942 2942 0.4981834079727286
2943 2942 0.16566465730950644
2942 2943 0.16566465730950633
2943 2943 0.5042300825410704
2944 2943 0.16938462372439833
2943 2944 0.16938462372439822
2944 2944 0.4924101459351212
2945 2944 0.16752361937412702
2944 2945 0.1675236193741272
2945 2945 0.5049644926033678
2946 2945 -0.16957823750558135
2945 2946 -0.16957823750558132
2946 2946 0.49924314625733646
2947 2946 -0.1716823541908542
2946 2947 -0.1716823541908541
2947 2947 0.5082935916967655
2948 2947 0.16869451445126088
2947 2948 0.16869451445126102
2948 2948 0.4970834359388707
2949 2948 0.1721229311783298
2948 2949 0.17212293117832972
2949 2949 0.4973024614581233
2950 2949 -0.16760485066982803
2949 2950 -0.167604850669828
2950 2950 0.5009826111259676
2951 2950 0.16806812898925727
2950 2951 0.16806812898925727
2951 2951 0.4973082148973721
2952 2951 -0.16809514577311013
2951 2952 -0.1680951457731101
2952 2952 0.49859143024744723
2953 2952 -0.17255238950595747
2952 2953 -0.17255238950595742
2953 2953 0.5071856529429118
2954 2953 -0.17499760552920948
2953 2954 -0.1749976055292095
2954 2954 0.49786081931881604
2955 2954 -0.16956312663244036
2954 2955 -0.16956312663244028
2955 2955 0.5054550261037134
2956 2955 -0.16950550976673248
2955 2956 -0.16950550976673256
2956 2956 0.5028967547293881
2957 2956 -0.16243357461767166
2956 2957 -0.16243357461767172
2957 2957 0.49733959155549196
2958 2957 -0.17194091341288562
2957 2958 -0.17194091341288578
2958 2958 0.5030531272822287
2959 2958 0.1691586378708914
2958 2959 0.1691586378708914
2959 2959 0.4938282605309355
2960 2959 0.16715733773436814
2959 2960 0.16715733773436814
2960 2960 0.49475494793849173
2961 2960 -0.16950868228540533
2960 2961 -0.16950868228540536
2961 2961 0.5004566645567424
2962 2961 0.16680894505543895
2961 2962 0.16680894505543895
2962 2962 0.4936727586591033
2963 2962 0.16655871730671068
2962 2963 0.1665587173067104
2963 2963 0.49328961848923175
2964 2963 0.16841353121666067
2963 2964 0.16841353121666064
2964 2964 0.4964677341913302
2965 2964 0.1667226670425349
2964 2965 0.16672266704253488
2965 2965 0.49942931158249804
2966 2965 0.1607423323017744
2965 2966 0.16074233230177443
2966 2966 0.48365790499930966
2967 2966 -0.17049116336553571
2966 2967 -0.1704911633655357
2967 2967 0.5085537082441776
2968 2967 -0.16601892575938765
2967 2968 -0.16601892575938743
2968 2968 0.5014475346035854
2969 2968 0.16786978908176173
2968 2969 0.16786978908176176
2969 2969 0.5078636703529777
2970 2969 -0.1665373779451612
2969 2970 -0.16653737794516127
2970 2970 0.4960690540363447
2971 2970 -0.16986825349756932
2970 2971 -0.16986825349756926
2971 2971 0.4974330977179883
2972 2971 0.1668848943714757
2971 2972 0.16688489437147566
2972 2972 0.5051690308965133
2973 2972 0.16641091791999568
2972 2973 0.16641091791999577
2973 2973 0.4999174661066789
2974 2973 -0.16549988451137568
2973 2974 -0.16549988451137557
2974 2974 0.5061922852400276
2975 2974 0.1677318361498049
2974 2975 0.16773183614980497
2975 2975 0.5047618206962343
2976 2975 0.16495336195555424
2975 2976 0.16495336195555435
2976 2976 0.5016116968043819
2977 2976 0.1657527796959403
2976 2977 0.16575277969594038
2977 2977 0.5018052225328036
2978 2977 0.16638007705203672
2977 2978 0.16638007705203675
2978 2978 0.4963708555518649
2979 2978 0.16404154545121763
2978 2979 0.16404154545121755
2979 2979 0.49632073770820856
2980 2979 0.16634470561114947
2979 2980 0.16634470561114925
2980 2980 0.495483205508341
2981 2980 -0.1637958001100244
2980 2981 -0.1637958001100246
2981 2981 0.50123202260215
2982 2981 -0.16621434902376434
2981 2982 -0.16621434902376434
2982 2982 0.4976340471392817
2983 2982 -0.16600286478850743
2982 2983 -0.16600286478850754
2983 2983 0.5000662007023173
2984 2983 -0.167992076452058
2983 2984 -0.1679920764520581
2984 2984 0.4991623002753356
2985 2984 -0.16531487318265106
2984 2985 -0.16531487318265106
2985 2985 0.4909908162978905
2986 2985 -0.16592525654310028
2985 2986 -0.1659252565431002
2986 2986 0.49712494058981616
2987 2986 0.16602207545189773
2986 2987 0.1660220754518978
2987 2987 0.4909150884828482
2988 2987 0.16650497185888072
2987 2988 0.16650497185888072
2988 2988 0.5006402455122743
2989 2988 -0.17081249391837067
2988 2989 -0.17081249391837067
2989 2989 0.508485102154923
2990 2989 -0.16748131913017797
2989 2990 -0.16748131913017805
2990 2990 0.49734147021853436
2991 2990 0.1661967225393473
2990 2991 0.16619672253934728
2991 2991 0.5024193784801537
2992 2991 0.16903772886017218
2991 2992 0.16903772886017224
2992 2992 0.4985343170684627
2993 2992 0.16872383070481917
2992 2993 0.16872383070481908
2993 2993 0.49970944368734765
2994 2993 0.16171087467205283
2993 2994 0.16171087467205286
2994 2994 0.4985427392132635
2995 2994 -0.16249119739890694
2994 2995 -0.16249119739890694
2995 2995 0.49968019966115074
2996 2995 -0.16705659792450323
2995 2996 -0.16705659792450317
2996 2996 0.5016106943905838
2997 2996 0.16767651677226822
2996 2997 0.1676765167722682
2997 2997 0.5046279225655023
2998 2997 -0.16640666858261363
2997 2998 -0.16640666858261371
2998 2998 0.5072699824048306
2999 2998 -0.1668836484579379
2998 2999 -0.16688364845793793
2999 2999 0.49254130023938464
3000 2999 -0.16479108066927564
2999 3000 -0.1647910806692756
3000 3000 0.49287497707499817
3001 3000 0.1612478073013031
3000 3001 0.1612478073013031
3001 3001 0.5022295422337515
3002 3001 -0.16569322617129326
3001 3002 -0.16569322617129342
3002 3002 0.5004663919378888
3003 3002 -0.16781639564606932
3002 3003 -0.1678163956460693
3003 3003 0.5058665855841066
3004 3003 0.16815816466943873
3003 3004 0.1681581646694387
3004 3004 0.5005843362278697
3005 3004 -0.1651554306289557
3004 3005 -0.16515543062895569
3005 3005 0.5032082020985871
3006 3005 0.1659860347163068
3005 3006 0.16598603471630674
3006 3006 0.497912782136772
3007 3006 -0.16628757468337804
3006 3007 -0.16628757468337804
3007 3007 0.5014027491165598
3008 3007 0.16696968994016653
3007 3008 0.1669696899401665
3008 3008 0.49656752542805715
3009 3008 0.16217138901518716
3008 3009 0.16217138901518716
3009 3009 0.5054259753202194
3010 3009 -0.16485298409864516
3009 3010 -0.16485298409864516
3010 3010 0.49722499852413393
3011 3010 0.1648522568449892
3010 3011 0.16485225684498925
3011 3011 0.4969275064642015
3012 3011 -0.16838568288678418
3011 3012 -0.16838568288678415
3012 3012 0.5010970176690344
3013 3012 -0.1652038467152262
3012 3013 -0.1652038467152262
3013 3013 0.49588740059575637
3014 3013 -0.16633780303907117
3013 3014 -0.16633780303907114
3014 3014 0.5035793726280695
3015 3014 -0.16167574041272906
3014 3015 -0.16167574041272914
3015 3015 0.5024557232195056
3016 3015 -0.16414266594613403
3015 3016 -0.16414266594613408
3016 3016 0.49690311947372146
3017 3016 -0.1630188660237539
3016 3017 -0.16301886602375396
3017 3017 0.49773265610575834
3018 3017 0.1647865632469668
3017 3018 0.16478656324696692
3018 3018 0.5000663296688861
3019 3018 -0.16216439119105486
3018 3019 -0.16216439119105505
3019 3019 0.5015391743846725
3020 3019 0.16355159539420136
3019 3020 0.1635515953942015
3020 3020 0.504931863626408
3021 3020 0.1627909114076333
3020 3021 0.1627909114076334
3021 3021 0.5005080480201103
3022 3021 -0.17073137628493262
3021 3022 -0.17073137628493257
3022 3022 0.49659248314215754
3023 3022 -0.16380558502554737
3022 3023 -0.16380558502554743
3023 3023 0.5050624215115063
3024 3023 -0.16254709770406178
3023 3024 -0.16254709770406187
3024 3024 0.5014211482874296
3025 3024 0.1650681715375582
3024 3025 0.1650681715375582
3025 3025 0.5063855148407177
3026 3025 0.16524217906628977
3025 3026 0.16524217906628985
3026 3026 0.4936574712279515
3027 3026 0.1592304158411574
3026 3027 0.1592304158411575
3027 3027 0.498610437112488
3028 3027 0.1643445004245022
3027 3028 0.1643445004245022
3028 3028 0.5004797959338916
3029 3028 -0.1630281355202678
3028 3029 -0.16302813552026782
3029 3029 0.5056110837966915
3030 3029 -0.16537295986529404
3029 3030 -0.16537295986529396
3030 3030 0.5009460113149506
3031 3030 -0.16445976998147324
3030 3031 -0.16445976998147321
3031 3031 0.4988576628194925
3032 3031 0.1650228021023557
3031 3032 0.16502280210235568
3032 3032 0.49797907714367545
3033 3032 -0.16226237230268784
3032 3033 -0.16226237230268792
3033 3033 0.4995229450713498
3034 3033 0.16652935498891389
3033 3034 0.16652935498891377
3034 3034 0.4900346526135946
3035 3034 0.15953169867989003
3034 3035 0.15953169867989006
3035 3035 0.49577066610641385
3036 3035 -0.16107546904735667
3035 3036 -0.16107546904735678
3036 3036 0.5037887598131315
3037 3036 0.15974359075726519
3036 3037 0.15974359075726519
3037 3037 0.4937867151656216
3038 3037 0.16404757845722817
3037 3038 0.16404757845722823
3038 3038 0.5155923054404077
3039 3038 0.16199709348312347
3038 3039 0.16199709348312338
3039 3039 0.4806500156462677
3040 3039 -0.16341850162023008
3039 3040 -0.16341850162023003
3040 3040 0.5065147864677253
3041 3040 -0.1629485688662209
3040 3041 -0.16294856886622078
3041 3041 0.49555135040700915
3042 3041 -0.1571800604165551
3041 3042 -0.15718006041655505
3042 3042 0.5038684720086058
3043 3042 -0.16308680193989908
3042 3043 -0.1630868019398991
3043 3043 0.49922690702296946
3044 3043 -0.16413867133330684
3043 3044 -0.16413867133330676
3044 3044 0.503866836545775
3045 3044 0.16216878640470128
3044 3045 0.1621687864047014
3045 3045 0.49855589587242716
3046 3045 0.16116964408847445
3045 3046 0.16116964408847445
3046 3046 0.503447943604033
3047 3046 0.16380700234978476
3046 3047 0.16380700234978474
3047 3047 0.5103462069857907
3048 3047 -0.16097801477142434
3047 3048 -0.16097801477142434
3048 3048 0.49425239696644024
3049 3048 -0.16216113477193772
3048 3049 -0.16216113477193772
3049 3049 0.4919876813123262
3050 3049 -0.16302695572658055
3049 3050 -0.16302695572658044
3050 3050 0.49509187641295643
3051 3050 -0.16514567331516158
3050 3051 -0.1651456733151616
3051 3051 0.5073245174511313
3052 3051 0.16018887684133232
3051 3052 0.16018887684133248
3052 3052 0.5014680620461172
3053 3052 -0.16225809436456562
3052 3053 -0.16225809436456556
3053 3053 0.4982115387929705
3054 3053 -0.16239050849864012
3053 3054 -0.1623905084986401
3054 3054 0.5085806712707425
3055 3054 -0.1596800754398431
3054 3055 -0.15968007543984317
3055 3055 0.501177110722267
3056 3055 0.1640934657713766
3055 3056 0.16409346577137657
3056 3056 0.5006455945129636
3057 3056 -0.16352260283371922
3056 3057 -0.1635226028337193
3057 3057 0.5105166644089619
3058 3057 -0.1630032133875413
3057 3058 -0.16300321338754142
3058 3058 0.5021397236044305
3059 3058 0.15755843479880366
3058 3059 0.15755843479880358
3059 3059 0.49260521489376796
3060 3059 0.16294949463498645
3059 3060 0.16294949463498648
3060 3060 0.4962197216148569
3061 3060 0.1606136660397587
3060 3061 0.16061366603975863
3061 3061 0.5033410929238815
3062 3061 0.15979806605123173
3061 3062 0.1597980660512317
3062 3062 0.49303306270567987
3063 3062 -0.16032507114594421
3062 3063 -0.1603250711459441
3063 3063 0.49590188158919135
3064 3063 0.16073825142503934
3063 3064 0.16073825142503928
3064 3064 0.5011156223078217
3065 3064 0.15846086247298752
3064 3065 0.1584608624729875
3065 3065 0.5014363547062961
3066 3065 0.15961763058106682
3065 3066 0.1596176305810668
3066 3066 0.5035022644720033
3067 3066 0.1579834361024497
3066 3067 0.15798343610244983
3067 3067 0.4986545357464464
3068 3067 0.1581479034149597
3067 3068 0.15814790341495968
3068 3068 0.50351326841731
3069 3068 0.16280927607428852
3068 3069 0.1628092760742885
3069 3069 0.497646187381677
3070 3069 0.1617093375390435
3069 3070 0.16170933753904354
3070 3070 0.5036186934735325
3071 3070 0.16214296451825433
3070 3071 0.16214296451825425
3071 3071 0.5032403801493552
3072 3071 -0.16508981093137687
3071 3072 -0.16508981093137698
3072 3072 0.5010517644813759
3073 3072 0.15959156023920337
3072 3073 0.1595915602392033
3073 3073 0.5060924648392933
3074 3073 0.15797342784963142
3073 3074 0.15797342784963142
3074 3074 0.49389778641050497
3075 3074 -0.1567899441922381
3074 3075 -0.15678994419223813
3075 3075 0.49822883666940126
3076 3075 0.15896951040377522
3075 3076 0.15896951040377524
3076 3076 0.49991414657070327
3077 3076 0.15905928696478255
3076 3077 0.1590592869647827
3077 3077 0.5082267206730194
3078 3077 0.1583260003364928
3077 3078 0.15832600033649283
3078 3078 0.4941571809777867
3079 3078 0.15972143106326903
3078 3079 0.15972143106326905
3079 3079 0.5041528152808425
3080 3079 0.16054374439422467
3079 3080 0.1605437443942246
3080 3080 0.5028943807661586
3081 3080 0.1570095579650749
3080 3081 0.15700955796507496
3081 3081 0.5000141636166371
3082 3081 -0.16169243509271977
3081 3082 -0.16169243509271974
3082 3082 0.4941895517845074
3083 3082 -0.15968204959399857
3082 3083 -0.15968204959399857
3083 3083 0.4975952601649717
3084 3083 -0.15830652384898303
3083 3084 -0.15830652384898292
3084 3084 0.4980413711672247
3085 3084 0.16012989225678756
3084 3085 0.16012989225678761
3085 3085 0.49558839983682124
3086 3085 0.15974993952009986
3085 3086 0.15974993952009992
3086 3086 0.5051839182804388
3087 3086 -0.16117589037094182
3086 3087 -0.16117589037094185
3087 3087 0.4950302986534397
3088 3087 0.16266221464163313
3087 3088 0.16266221464163302
3088 3088 0.4989870274775968
3089 3088 -0.15925334270064945
3088 3089 -0.15925334270064953
3089 3089 0.5050413634025723
3090 3089 0.1554870936111959
3089 3090 0.15548709361119603
3090 3090 0.5089725961728617
3091 3090 -0.15895923225235645
3090 3091 -0.15895923225235647
3091 3091 0.5038020929236044
3092 3091 0.1546456458741147
3091 3092 0.15464564587411478
3092 3092 0.49986695134296766
3093 3092 0.159310586996497
3092 3093 0.159310586996497
3093 3093 0.49527768188168797
3094 3093 0.15376844950851842
3093 3094 0.15376844950851837
3094 3094 0.4990748600703958
3095 3094 -0.15816369255516452
3094 3095 -0.15816369255516463
3095 3095 0.49378999758379155
3096 3095 -0.15906051660264836
3095 3096 -0.15906051660264836
3096 3096 0.5029761529616181
3097 3096 -0.15540149027201436
3096 3097 -0.15540149027201422
3097 3097 0.5013393812121717
3098 3097 -0.1545777363507338
3097 3098 -0.15457773635073377
3098 3098 0.49675112219811246
3099 3098 0.156797940304685
3098 3099 0.1567979403046851
3099 3099 0.4962676376823251
3100 3099 -0.16053743894007066
3099 3100 -0.16053743894007083
3100 3100 0.49981078656898287
3101 3100 0.15808462984103724
3100 3101 0.15808462984103724
3101 3101 0.4967868945754671
3102 3101 -0.15241415520922333
3101 3102 -0.15241415520922333
3102 3102 0.5035176407655423
3103 3102 -0.16027367378036678
3102 3103 -0.16027367378036672
3103 3103 0.4963718820999089
3104 3103 -0.15789034935770113
3103 3104 -0.15789034935770133
3104 3104 0.4987325915889016
3105 3104 -0.15920944438662799
3104 3105 -0.15920944438662804
3105 3105 0.4987760145568225
3106 3105 -0.15735575578917488
3105 3106 -0.15735575578917485
3106 3106 0.49716824765001355
3107 3106 0.1587685637403869
3106 3107 0.15876856374038695
3107 3107 0.49122160150881206
3108 3107 -0.1552883256319769
3107 3108 -0.15528832563197686
3108 3108 0.5012020208196416
3109 3108 0.15837098833016325
3108 3109 0.15837098833016336
3109 3109 0.5084075158608393
3110 3109 -0.15942135306868044
3109 3110 -0.15942135306868035
3110 3110 0.4976040813112154
3111 3110 -0.1524050726641529
3110 3111 -0.15240507266415299
3111 3111 0.5026228521263976
3112 3111 0.15379438589067654
3111 3112 0.15379438589067648
3112 3112 0.4999035707710636
3113 3112 -0.16109437711862598
3112 3113 -0.16109437711862606
3113 3113 0.49598639859335525
3114 3113 -0.1571661446881455
3113 3114 -0.1571661446881455
3114 3114 0.5006032320711956
3115 3114 -0.1626905563395523
3114 3115 -0.16269055633955248
3115 3115 0.49326375043231907
3116 3115 -0.15757785568200366
3115 3116 -0.15757785568200375
3116 3116 0.5043573550183723
3117 3116 0.15378446453418662
3116 3117 0.15378446453418662
3117 3117 0.4950023670886898
3118 3117 0.1547773120950389
3117 3118 0.1547773120950389
3118 3118 0.5001594800144903
3119 3118 0.15335642871912605
3118 3119 0.15335642871912591
3119 3119 0.5088707397666357
3120 3119 0.16000582845021363
3119 3120 0.16000582845021372
3120 3120 0.5077975442389162
3121 3120 -0.15573775187725344
3120 3121 -0.15573775187725347
3121 3121 0.5027587916187792
3122 3121 0.15744009785486893
3121 3122 0.15744009785486895
3122 3122 0.5083767285546061
3123 3122 0.15579167217900278
3122 3123 0.15579167217900275
3123 3123 0.5028286907817858
3124 3123 -0.1581947495016641
3123 3124 -0.1581947495016641
3124 3124 0.49694616766179794
3125 3124 0.15743872041280366
3124 3125 0.15743872041280355
3125 3125 0.49951144138354536
3126 3125 0.15692839671581318
3125 3126 0.15692839671581318
3126 3126 0.4991248567461413
3127 3126 -0.15847373621792138
3126 3127 -0.1584737362179215
3127 3127 0.500296700174394
3128 3127 0.15745531472910673
3127 3128 0.15745531472910662
3128 3128 0.4984843257184622
3129 3128 -0.15466491796282505
3128 3129 -0.1546649179628251
3129 3129 0.5043511436803578
3130 3129 0.1567885914464496
3129 3130 0.1567885914464494
3130 3130 0.4963407567832943
3131 3130 0.15620320778344549
3130 3131 0.15620320778344565
3131 3131 0.5013727055844228
3132 3131 -0.1511412405641383
3131 3132 -0.15114124056413825
3132 3132 0.4976934436789435
3133 3132 0.15909238986305047
3132 3133 0.15909238986305047
3133 3133 0.5059834283102879
3134 3133 -0.1561847431592937
3133 3134 -0.15618474315929368
3134 3134 0.49344327753292394
3135 3134 0.15518077167326821
3134 3135 0.15518077167326816
3135 3135 0.4886473482935957
3136 3135 0.15079059184981883
3135 3136 0.15079059184981886
3136 3136 0.5015089856421885
3137 3136 0.15258588849064486
3136 3137 0.15258588849064497
3137 3137 0.4944568465407362
3138 3137 -0.1566539980624623
3137 3138 -0.15665399806246239
3138 3138 0.5031090631695596
3139 3138 0.1547832156027481
3138 3139 0.15478321560274813
3139 3139 0.5050744254550057
3140 3139 -0.15330257189474114
3139 3140 -0.1533025718947411
3140 3140 0.4999209510916696
3141 3140 -0.15141421221376095
3140 3141 -0.15141421221376095
3141 3141 0.5059705122996984
3142 3141 0.15573559285631453
3141 3142 0.15573559285631444
3142 3142 0.5076073643895651
3143 3142 0.1537637589971025
3142 3143 0.15376375899710246
3143 3143 0.5135649163850179
3144 3143 0.1537317138870928
3143 3144 0.1537317138870928
3144 3144 0.4938312865805268
3145 3144 0.14978181540240884
3144 3145 0.14978181540240884
3145 3145 0.5012523715504495
3146 3145 -0.15583682387150827
3145 3146 -0.1558368238715082
3146 3146 0.509826655681822
3147 3146 0.15406301624891833
3146 3147 0.15406301624891838
3147 3147 0.49456634506117003
3148 3147 0.15067495381747553
3147 3148 0.15067495381747556
3148 3148 0.503066549737158
3149 3148 -0.15069243446886726
3148 3149 -0.15069243446886726
3149 3149 0.49645075745259515
3150 3149 0.15067356568171061
3149 3150 0.15067356568171056
3150 3150 0.4967146276201857
3151 3150 0.15429409027029065
3150 3151 0.15429409027029065
3151 3151 0.4964658169979968
3152 3151 0.15271681203345558
3151 3152 0.15271681203345566
3152 3152 0.4979048474869331
3153 3152 -0.15662533841378776
3152 3153 -0.15662533841378765
3153 3153 0.5075500469106674
3154 3153 -0.15755232262687455
3153 3154 -0.1575523226268746
3154 3154 0.49832669148184333
3155 3154 0.15748504957417672
3154 3155 0.15748504957417678
3155 3155 0.4913541169887539
3156 3155 -0.15513520764278532
3155 3156 -0.15513520764278535
3156 3156 0.4887639536188687
3157 3156 0.1541148259533999
3156 3157 0.15411482595339993
3157 3157 0.5070160408385799
3158 3157 0.15420846555091358
3157 3158 0.1542084655509136
3158 3158 0.5032763701646847
3159 3158 -0.15305163516370401
3158 3159 -0.1530516351637038
3159 3159 0.5013306121597163
3160 3159 0.1480213121554862
3159 3160 0.14802131215548603
3160 3160 0.492092021297026
3161 3160 0.1552427983787868
3160 3161 0.15524279837878688
3161 3161 0.5110555047628668
3162 3161 -0.14937921738582063
3161 3162 -0.14937921738582072
3162 3162 0.4962980451632303
3163 3162 -0.15198063945648987
3162 3163 -0.15198063945648999
3163 3163 0.4986012934015484
3164 3163 -0.15307559553545289
3163 3164 -0.1530755955354528
3164 3164 0.4989213413459933
3165 3164 0.15063624193018807
3164 3165 0.15063624193018804
3165 3165 0.5044711024537565
3166 3165 0.15018895295812443
3165 3166 0.1501889529581245
3166 3166 0.5054019337722576
3167 3166 -0.1564783270000803
3166 3167 -0.1564783270000803
3167 3167 0.5018185677584879
3168 3167 0.15863791974219738
3167 3168 0.1586379197421974
3168 3168 0.497743063530295
3169 3168 0.1511796492300393
3168 3169 0.15117964923003935
3169 3169 0.5035617436427844
3170 3169 0.15244084766348082
3169 3170 0.15244084766348093
3170 3170 0.5039284094785961
3171 3170 0.1511013896369074
3170 3171 0.15110138963690728
3171 3171 0.49711953286992794
3172 3171 -0.15196520829840826
3171 3172 -0.15196520829840815
3172 3172 0.5068389638315748
3173 3172 0.15064508120435582
3172 3173 0.15064508120435588
3173 3173 0.5023653271700019
3174 3173 0.14992817310626244
3173 3174 0.1499281731062626
3174 3174 0.5061069684027447
3175 3174 0.1531112632826437
3174 3175 0.1531112632826437
3175 3175 0.49948776236302905
3176 3175 -0.15086936096484443
3175 3176 -0.15086936096484435
3176 3176 0.4921101562126674
3177 3176 0.15039397728482626
3176 3177 0.15039397728482626
3177 3177 0.4967707411652318
3178 3177 0.15896969911064515
3177 3178 0.15896969911064526
3178 3178 0.4947752461945466
3179 3178 0.1525275277810255
3178 3179 0.15252752778102557
3179 3179 0.5042108809599589
3180 3179 -0.14870638432398656
3179 3180 -0.14870638432398636
3180 3180 0.5021236283531092
3181 3180 0.15153984090517603
3180 3181 0.1515398409051761
3181 3181 0.5054406982919832
3182 3181 0.1478558506608524
3181 3182 0.14785585066085238
3182 3182 0.48649783889817366
3183 3182 -0.15429269429134218
3182 3183 -0.15429269429134204
3183 3183 0.4999177948632081
3184 3183 0.15228964074395077
3183 3184 0.15228964074395065
3184 3184 0.4916822998343845
3185 3184 -0.1528317803730469
3184 3185 -0.15283178037304704
3185 3185 0.5006472351784557
3186 3185 -0.15092569786491472
3185 3186 -0.15092569786491478
3186 3186 0.49037219889608563
3187 3186 -0.1578234657414165
3186 3187 -0.15782346574141648
3187 3187 0.5073158585175015
3188 3187 0.15470344780720377
3187 3188 0.1547034478072038
3188 3188 0.5060455633676777
3189 3188 0.1521170399084976
3188 3189 0.15211703990849756
3189 3189 0.49875538814000736
3190 3189 0.15482431681631892
3189 3190 0.15482431681631897
3190 3190 0.49847836607096196
3191 3190 -0.1476058509536866
3190 3191 -0.14760585095368647
3191 3191 0.503544261247943
3192 3191 -0.1503435535686867
3191 3192 -0.15034355356868678
3192 3192 0.49774102283337474
3193 3192 -0.151204570591809
3192 3193 -0.151204570591809
3193 3193 0.5024818231850209
3194 3193 0.1447710895442876
3193 3194 0.14477108954428766
3194 3194 0.502230810287416
3195 3194 0.15275443369929365
3194 3195 0.15275443369929367
3195 3195 0.5036220022424918
3196 3195 -0.15084413492081214
3195 3196 -0.15084413492081222
3196 3196 0.4991821548671916
3197 3196 0.1474360405121258
3196 3197 0.14743604051212586
3197 3197 0.4994491404039707
3198 3197 -0.15237138819248583
3197 3198 -0.1523713881924858
3198 3198 0.49676287674255604
3199 3198 0.14609463349736276
3198 3199 0.14609463349736285
3199 3199 0.5024042358197911
3200 3199 -0.15276065370969247
3199 3200 -0.15276065370969238
3200 3200 0.49901976837619133
3201 3200 0.14619624679527557
3200 3201 0.14619624679527557
3201 3201 0.505304104449701
3202 3201 -0.14895771435996794
3201 3202 -0.1489577143599679
3202 3202 0.5019489483073298
3203 3202 0.1532673088234786
3202 3203 0.15326730882347872
3203 3203 0.5008083901094063
3204 3203 0.146507535896994
3203 3204 0.14650753589699397
3204 3204 0.49395926890663955
3205 3204 0.14815653764508402
3204 3205 0.14815653764508402
3205 3205 0.5050348307266455
3206 3205 -0.1526611771294518
3205 3206 -0.15266117712945176
3206 3206 0.4902906659818359
3207 3206 -0.15324060141959717
3206 3207 -0.15324060141959725
3207 3207 0.5011155963738132
3208 3207 0.1459262562413463
3207 3208 0.14592625624134625
3208 3208 0.5051290040026732
3209 3208 0.15318477744440873
3208 3209 0.15318477744440867
3209 3209 0.503272614289854
3210 3209 -0.14685980982899846
3209 3210 -0.14685980982899846
3210 3210 0.5059632468252067
3211 3210 -0.1496374943940359
3210 3211 -0.1496374943940359
3211 3211 0.49262540749492056
3212 3211 0.15551988780221537
3211 3212 0.15551988780221537
3212 3212 0.4963771622871902
3213 3212 -0.14925143018532264
3212 3213 -0.1492514301853226
3213 3213 0.5003242960770053
3214 3213 0.15238477290267513
3213 3214 0.15238477290267513
3214 3214 0.5016045828230077
3215 3214 -0.14865118847169545
3214 3215 -0.14865118847169548
3215 3215 0.4969679365185922
3216 3215 0.15295958303461807
3215 3216 0.1529595830346181
3216 3216 0.4994959007699355
3217 3216 -0.1497303405904399
3216 3217 -0.1497303405904399
3217 3217 0.4999771260099647
3218 3217 0.14882839779198043
3217 3218 0.14882839779198043
3218 3218 0.5040597092289605
3219 3218 -0.14837916626829004
3218 3219 -0.14837916626829
3219 3219 0.49632187683689616
3220 3219 -0.1458870333398013
3219 3220 -0.1458870333398012
3220 3220 0.4988784409486249
3221 3220 0.15227669027790453
3220 3221 0.15227669027790458
3221 3221 0.505046572409669
3222 3221 -0.14521757528347914
3221 3222 -0.14521757528347928
3222 3222 0.5038989460441947
3223 3222 -0.1442789409181651
3222 3223 -0.14427894091816515
3223 3223 0.501284620795681
3224 3223 -0.14746742219153974
3223 3224 -0.1474674221915396
3224 3224 0.4988473878006022
3225 3224 0.14902438084308425
3224 3225 0.14902438084308434
3225 3225 0.5079212775591295
3226 3225 -0.14995599866978715
3225 3226 -0.14995599866978715
3226 3226 0.4998307189545403
3227 3226 -0.1467514632874925
3226 3227 -0.14675146328749247
3227 3227 0.499721549740758
3228 3227 -0.1487035794416609
3227 3228 -0.1487035794416609
3228 3228 0.49696045036230707
3229 3228 0.1499764870934428
3228 3229 0.1499764870934428
3229 3229 0.5016104245314807
3230 3229 -0.1488780083841654
3229 3230 -0.14887800838416537
3230 3230 0.49842281635777375
3231 3230 -0.1443937320495307
3230 3231 -0.14439373204953082
3231 3231 0.5020283893417181
3232 3231 0.15269285906934377
3231 3232 0.15269285906934388
3232 3232 0.4959446418482199
3233 3232 -0.14585578243946368
3232 3233 -0.14585578243946357
3233 3233 0.49366614928203245
3234 3233 0.15193930579765164
3233 3234 0.15193930579765172
3234 3234 0.4976671106513547
3235 3234 -0.14626674934134284
3234 3235 -0.14626674934134282
3235 3235 0.5040226363565022
3236 3235 -0.1469202887227389
3235 3236 -0.1469202887227389
3236 3236 0.5010901356945219
3237 3236 0.1456264404292678
3236 3237 0.14562644042926787
3237 3237 0.5054128320291162
3238 3237 0.14607390749122376
3237 3238 0.1460739074912238
3238 3238 0.49588939572274915
3239 3238 -0.14387990477614937
3238 3239 -0.1438799047761493
3239 3239 0.5033996757566992
3240 3239 0.149940767189966
3239 3240 0.14994076718996607
3240 3240 0.49507129233084923
3241 3240 -0.1446258060632291
3240 3241 -0.14462580606322922
3241 3241 0.49882809516414583
3242 3241 0.15467385758244245
3241 3242 0.1546738575824424
3242 3242 0.4985502978623031
3243 3242 -0.14721642346539143
3242 3243 -0.14721642346539135
3243 3243 0.5050839857966001
3244 3243 -0.146040689558476
3243 3244 -0.146040689558476
3244 3244 0.49521337974661095
3245 3244 0.1473626077916382
3244 3245 0.14736260779163826
3245 3245 0.4910932605885398
3246 3245 0.14513980575593813
3245 3246 0.14513980575593813
3246 3246 0.4971379889213766
3247 3246 -0.14498195249168466
3246 3247 -0.1449819524916846
3247 3247 0.5046145746995387
3248 3247 -0.14156615376641327
3247 3248 -0.14156615376641335
3248 3248 0.5049693433239484
3249 3248 0.14618607701291084
3248 3249 0.14618607701291078
3249 3249 0.50181570319934
3250 3249 0.14819641182764
3249 3250 0.14819641182764004
3250 3250 0.4986435660286514
3251 3250 -0.1454517602940246
3250 3251 -0.14545176029402462
3251 3251 0.49886736703262036
3252 3251 -0.14788658027861973
3251 3252 -0.14788658027861967
3252 3252 0.5015547085956886
3253 3252 -0.148269115563013
3252 3253 -0.148269115563013
3253 3253 0.5013857297004302
3254 3253 0.14483829500629222
3253 3254 0.14483829500629222
3254 3254 0.4974814269413942
3255 3254 -0.14294011361924752
3254 3255 -0.14294011361924763
3255 3255 0.49851449565074185
3256 3255 -0.14413749255466377
3255 3256 -0.14413749255466382
3256 3256 0.49578986763351607
3257 3256 0.14949656157528818
3256 3257 0.14949656157528818
3257 3257 0.4990809833411058
3258 3257 -0.14420916467600017
3257 3258 -0.1442091646760002
3258 3258 0.5029417313898972
3259 3258 0.146378755078944
3258 3259 0.14637875507894393
3259 3259 0.5052621857789072
3260 3259 -0.14329190575760892
3259 3260 -0.14329190575760892
3260 3260 0.505071332768198
3261 3260 0.14464137882670852
3260 3261 0.14464137882670852
3261 3261 0.4970750539511895
3262 3261 -0.14460799604809688
3261 3262 -0.144607996048097
3262 3262 0.4857802216774201
3263 3262 0.14267213934698086
3262 3263 0.1426721393469808
3263 3263 0.5012500417414926
3264 3263 -0.14422613183122635
3263 3264 -0.14422613183122618
3264 3264 0.5090681509268182
3265 3264 0.14298380346476477
3264 3265 0.14298380346476483
3265 3265 0.49486444577626904
3266 3265 0.14096876968033573
3265 3266 0.14096876968033567
3266 3266 0.508027272391476
3267 3266 -0.14461476506039567
3266 3267 -0.14461476506039564
3267 3267 0.4999858596319756
3268 3267 -0.144221768872189
3267 3268 -0.14422176887218913
3268 3268 0.4980100667960522
3269 3268 -0.1411474684783895
3268 3269 -0.14114746847838944
3269 3269 0.49114185932987636
3270 3269 -0.14530043445604476
3269 3270 -0.1453004344560447
3270 3270 0.5012124573958708
3271 3270 0.14712665063342759
3270 3271 0.14712665063342778
3271 3271 0.49927570769891233
3272 3271 -0.14076117621562664
3271 3272 -0.14076117621562664
3272 3272 0.49341296465638335
3273 3272 0.14288568349065608
3272 3273 0.1428856834906561
3273 3273 0.5020546821254173
3274 3273 -0.14535572344322142
3273 3274 -0.14535572344322145
3274 3274 0.4937053760277136
3275 3274 -0.13835295046129317
3274 3275 -0.1383529504612931
3275 3275 0.5003988968723062
3276 3275 0.1440158471743767
3275 3276 0.14401584717437674
3276 3276 0.49469576158871154
3277 3276 0.14046142418408655
3276 3277 0.1404614241840866
3277 3277 0.5029228368032542
3278 3277 -0.14151930106025234
3277 3278 -0.14151930106025243
3278 3278 0.49544216174545497
3279 3278 0.14326699210292557
3278 3279 0.14326699210292548
3279 3279 0.49358487458184314
3280 3279 -0.13911995658069548
3279 3280 -0.13911995658069543
3280 3280 0.4936452640338012
3281 3280 -0.14252056040921168
3280 3281 -0.14252056040921163
3281 3281 0.49443108840024985
3282 3281 -0.14514523996094744
3281 3282 -0.14514523996094747
3282 3282 0.49661639961443704
3283 3282 0.14365144114824868
3282 3283 0.14365144114824885
3283 3283 0.5004911993926151
3284 3283 0.13899349206492384
3283 3284 0.13899349206492392
3284 3284 0.496654636955673
3285 3284 0.14260599267320162
3284 3285 0.1426059926732016
3285 3285 0.5065810827182997
3286 3285 0.13953026093801713
3285 3286 0.13953026093801724
3286 3286 0.4962884320332985
3287 3286 -0.14444168460893259
3286 3287 -0.14444168460893256
3287 3287 0.5030671555892325
3288 3287 -0.14221950878236844
3287 3288 -0.14221950878236853
3288 3288 0.4923652465923448
3289 3288 0.1431068930751183
3288 3289 0.1431068930751184
3289 3289 0.5055059467480802
3290 3289 0.14114969035312566
3289 3290 0.14114969035312544
3290 3290 0.5034082933481243
3291 3290 -0.14311085653153466
3290 3291 -0.14311085653153463
3291 3291 0.4983504512482002
3292 3291 -0.14486400787477557
3291 3292 -0.1448640078747755
3292 3292 0.4989879932936673
3293 3292 0.14127430084589396
3292 3293 0.14127430084589396
3293 3293 0.5007738873594111
3294 3293 0.14004149946188424
3293 3294 0.14004149946188418
3294 3294 0.49961298494995143
3295 3294 0.14293232674638714
3294 3295 0.14293232674638714
3295 3295 0.5017613637497657
3296 3295 -0.13894868547036635
3295 3296 -0.13894868547036643
3296 3296 0.502245001945155
3297 3296 0.14131692456651174
3296 3297 0.14131692456651182
3297 3297 0.49036220996855395
3298 3297 0.14401702539839986
3297 3298 0.14401702539839994
3298 3298 0.5046306855433151
3299 3298 -0.14403148480416794
3298 3299 -0.1440314848041679
3299 3299 0.5058915666451588
3300 3299 -0.14216126142161825
3299 3300 -0.14216126142161817
3300 3300 0.5089605727303863
3301 3300 0.1383394180840087
3300 3301 0.13833941808400868
3301 3301 0.5046805158233493
3302 3301 -0.1408287719414826
3301 3302 -0.14082877194148274
3302 3302 0.4950876701173904
3303 3302 0.14395171688296027
3302 3303 0.14395171688296032
3303 3303 0.5126506283129263
3304 3303 -0.1482013010115052
3303 3304 -0.14820130101150517
3304 3304 0.4967640347657152
3305 3304 0.14031149086521863
3304 3305 0.1403114908652186
3305 3305 0.501161224473112
3306 3305 0.14429170674892303
3305 3306 0.14429170674892317
3306 3306 0.5073801031071947
3307 3306 -0.14546901239590831
3306 3307 -0.14546901239590826
3307 3307 0.4973197324946402
3308 3307 0.13905901493074452
3307 3308 0.13905901493074452
3308 3308 0.493165823391892
3309 3308 -0.14174565001372116
3308 3309 -0.14174565001372116
3309 3309 0.5097082552755734
3310 3309 -0.14310293399240578
3309 3310 -0.1431029339924059
3310 3310 0.5014041173671826
3311 3310 -0.14036824062813652
3310 3311 -0.14036824062813663
3311 3311 0.49610128983456964
3312 3311 -0.13932909329432752
3311 3312 -0.1393290932943276
3312 3312 0.4963475936853106
3313 3312 -0.13998913434235227
3312 3313 -0.13998913434235222
3313 3313 0.4984864360180612
3314 3313 0.13648888669999257
3313 3314 0.13648888669999248
3314 3314 0.501432758944623
3315 3314 -0.1384377600430212
3314 3315 -0.13843776004302116
3315 3315 0.5013684336908651
3316 3315 0.13527564884202517
3315 3316 0.13527564884202514
3316 3316 0.49543700540931995
3317 3316 -0.1391275892020014
3316 3317 -0.1391275892020014
3317 3317 0.5030497041755315
3318 3317 -0.1422095334095752
3317 3318 -0.1422095334095751
3318 3318 0.4977140173158319
3319 3318 0.1365823121595894
3318 3319 0.13658231215958927
3319 3319 0.5119893221797445
3320 3319 -0.14208787167718417
3319 3320 -0.14208787167718417
3320 3320 0.4935529738108729
3321 3320 0.14004803807151298
3320 3321 0.140048038071513
3321 3321 0.5038199236788286
3322 3321 0.13933383999306606
3321 3322 0.139333839993066
3322 3322 0.496381581770982
3323 3322 -0.13713051000432866
3322 3323 -0.13713051000432855
3323 3323 0.4953441242050378
3324 3323 -0.13942481833683026
3323 3324 -0.13942481833683013
3324 3324 0.5041363596351012
3325 3324 0.14144299078444977
3324 3325 0.14144299078444977
3325 3325 0.4953493948977115
3326 3325 -0.13932981400962427
3325 3326 -0.1393298140096243
3326 3326 0.4909033018469052
3327 3326 0.14089074551040145
3326 3327 0.14089074551040145
3327 3327 0.5045754977633476
3328 3327 -0.1413618572597924
3327 3328 -0.1413618572597924
3328 3328 0.5070402320609464
3329 3328 -0.1364098327030331
3328 3329 -0.13640983270303306
3329 3329 0.5013281183867686
3330 3329 0.1339431043209288
3329 3330 0.13394310432092887
3330 3330 0.5054197052059204
3331 3330 0.13741390336093184
3330 3331 0.13741390336093184
3331 3331 0.4974312308883913
3332 3331 -0.13617591927656747
3331 3332 -0.13617591927656744
3332 3332 0.5054192646609141
3333 3332 -0.13985842171751744
3332 3333 -0.13985842171751744
3333 3333 0.5006639415387433
3334 3333 0.13164313121464605
3333 3334 0.1316431312146462
3334 3334 0.50565228406826
3335 3334 -0.13905418327331961
3334 3335 -0.1390541832733196
3335 3335 0.5012556463531801
3336 3335 -0.1366771828234443
3335 3336 -0.13667718282344427
3336 3336 0.49552980988759404
3337 3336 -0.13895685012626094
3336 3337 -0.13895685012626097
3337 3337 0.5005306681771711
3338 3337 0.13825593721337326
3337 3338 0.13825593721337315
3338 3338 0.5026946786202576
3339 3338 0.13898296495507356
3338 3339 0.13898296495507348
3339 3339 0.49340495176905314
3340 3339 0.13408081187491613
3339 3340 0.1340808118749161
3340 3340 0.494226865866238
3341 3340 -0.13763093630433168
3340 3341 -0.13763093630433157
3341 3341 0.50289247322588
3342 3341 0.13667380562519849
3341 3342 0.13667380562519846
3342 3342 0.49862229546559755
3343 3342 0.1400011871608956
3342 3343 0.14000118716089566
3343 3343 0.49838043718137104
3344 3343 -0.13725186003762285
3343 3344 -0.13725186003762277
3344 3344 0.4964073639553857
3345 3344 -0.13814808185689145
3344 3345 -0.1381480818568914
3345 3345 0.49483748204809447
3346 3345 0.13570827210576777
3345 3346 0.13570827210576777
3346 3346 0.5016997608128653
3347 3346 0.1369684404235854
3346 3347 0.13696844042358547
3347 3347 0.49757683355597876
3348 3347 0.13805033994842414
3347 3348 0.13805033994842414
3348 3348 0.504846034882368
3349 3348 -0.1364813724155001
3348 3349 -0.13648137241550024
3349 3349 0.49297213048255334
3350 3349 -0.1369478957614662
3349 3350 -0.1369478957614663
3350 3350 0.5041862429996139
3351 3350 0.14227746994835003
3350 3351 0.14227746994834994
3351 3351 0.5021989618946161
3352 3351 0.13889883482825893
3351 3352 0.138898834828259
3352 3352 0.506132775097012
3353 3352 -0.1406388371862639
3352 3353 -0.1406388371862639
3353 3353 0.5024889387201639
3354 3353 0.13396959626887311
3353 3354 0.13396959626887306
3354 3354 0.5038679871129368
3355 3354 -0.1354843102820885
3354 3355 -0.13548431028208852
3355 3355 0.496691583207223
3356 3355 0.13278004626074072
3355 3356 0.1327800462607406
3356 3356 0.499422574001217
3357 3356 0.1374939650409997
3356 3357 0.13749396504099975
3357 3357 0.4979659206801785
3358 3357 -0.1345553265297107
3357 3358 -0.13455532652971083
3358 3358 0.5032811399765329
3359 3358 -0.13951966317446862
3358 3359 -0.13951966317446862
3359 3359 0.49755383874538595
3360 3359 0.1396137521862824
3359 3360 0.1396137521862824
3360 3360 0.4975084657079804
3361 3360 0.1326147753746186
3360 3361 0.1326147753746186
3361 3361 0.502169877941103
3362 3361 0.13897340855450513
3361 3362 0.13897340855450513
3362 3362 0.49859430837327123
3363 3362 -0.13337259074388114
3362 3363 -0.13337259074388114
3363 3363 0.49698468431637366
3364 3363 -0.13815073924592958
3363 3364 -0.13815073924592952
3364 3364 0.5057910840561101
3365 3364 0.13814234551419308
3364 3365 0.13814234551419308
3365 3365 0.49909056840701566
3366 3365 0.1334852197592503
3365 3366 0.13348521975925012
3366 3366 0.4969766523560717
3367 3366 0.14013772320004905
3366 3367 0.14013772320004897
3367 3367 0.497467102910989
3368 3367 -0.13175310778517005
3367 3368 -0.13175310778516997
3368 3368 0.5028952237972929
3369 3368 -0.13710280244017575
3368 3369 -0.13710280244017575
3369 3369 0.4928940128226755
3370 3369 -0.1341443315866126
3369 3370 -0.13414433158661257
3370 3370 0.500184365328364
3371 3370 -0.13641270867434008
3370 3371 -0.13641270867433997
3371 3371 0.507953507399286
3372 3371 -0.1329172860602481
3371 3372 -0.13291728606024827
3372 3372 0.5021231267985808
3373 3372 -0.13827995124697784
3372 3373 -0.13827995124697773
3373 3373 0.4961739838671993
3374 3373 0.13383189868853412
3373 3374 0.13383189868853418
3374 3374 0.500073729567459
3375 3374 -0.137478748731719
3374 3375 -0.13747874873171892
3375 3375 0.49725333207149375
3376 3375 0.1311589683551196
3375 3376 0.13115896835511956
3376 3376 0.49787257719371547
3377 3376 -0.1328647125162654
3376 3377 -0.13286471251626544
3377 3377 0.4992723632013687
3378 3377 0.13547934685740903
3377 3378 0.1354793468574091
3378 3378 0.49534841835664783
3379 3378 0.132831123248929
3378 3379 0.13283112324892893
3379 3379 0.49302003340302236
3380 3379 -0.13508393423889162
3379 3380 -0.13508393423889156
3380 3380 0.5128523327539691
3381 3380 0.13207595439623093
3380 3381 0.13207595439623104
3381 3381 0.5003879668683969
3382 3381 0.1329008790618619
3381 3382 0.13290087906186193
3382 3382 0.4950264044086726
3383 3382 0.13635468579614304
3382 3383 0.13635468579614296
3383 3383 0.4957383266772668
3384 3383 -0.13235250494770875
3383 3384 -0.13235250494770875
3384 3384 0.5034227782526837
3385 3384 -0.13454025864186336
3384 3385 -0.13454025864186336
3385 3385 0.5030693828722808
3386 3385 0.13314291311652887
3385 3386 0.13314291311652893
3386 3386 0.4984764394292188
3387 3386 0.13143413678216828
3386 3387 0.1314341367821683
3387 3387 0.4980966583095769
3388 3387 -0.1366559321615733
3387 3388 -0.13665593216157337
3388 3388 0.4996642488373459
3389 3388 0.13143173714886133
3388 3389 0.13143173714886128
3389 3389 0.5067697867954065
3390 3389 0.13323596563263707
3389 3390 0.13323596563263707
3390 3390 0.5022244201237346
3391 3390 0.1327866062935873
3390 3391 0.1327866062935873
3391 3391 0.49980314323939534
3392 3391 -0.1318299737441324
3391 3392 -0.13182997374413238
3392 3392 0.5027534052574691
3393 3392 0.13266465080950487
3392 3393 0.13266465080950487
3393 3393 0.498436689149488
3394 3393 -0.13183138960024185
3393 3394 -0.13183138960024182
3394 3394 0.4998914058304899
3395 3394 -0.13251470206753113
3394 3395 -0.13251470206753116
3395 3395 0.49881873813302463
3396 3395 -0.13761252738310664
3395 3396 -0.1376125273831067
3396 3396 0.4898603026972993
3397 3396 0.1297903188755499
3396 3397 0.12979031887554998
3397 3397 0.49455285806257276
3398 3397 0.13121585599653568
3397 3398 0.13121585599653565
3398 3398 0.504029006728075
3399 3398 0.13234381916923246
3398 3399 0.13234381916923246
3399 3399 0.5044342360161105
3400 3399 -0.1295372680548017
3399 3400 -0.1295372680548017
3400 3400 0.4992913692667952
3401 3400 -0.1316958227603298
3400 3401 -0.13169582276032982
3401 3401 0.49870076306997135
3402 3401 -0.13011576339988387
3401 3402 -0.1301157633998838
3402 3402 0.49438040703327607
3403 3402 0.13051088449033782
3402 3403 0.13051088449033782
3403 3403 0.4944366927592571
3404 3403 -0.1266412679884655
3403 3404 -0.12664126798846545
3404 3404 0.499878592040262
3405 3404 0.13665520687464408
3404 3405 0.136655206874644
3405 3405 0.5065462040180058
3406 3405 0.13614843468139814
3405 3406 0.13614843468139812
3406 3406 0.49808330720727634
3407 3406 0.13254320168411216
3406 3407 0.13254320168411204
3407 3407 0.5034187703581101
3408 3407 0.12975602415496332
3407 3408 0.1297560241549633
3408 3408 0.4947240628203525
3409 3408 0.131438390879056
3408 3409 0.13143839087905596
3409 3409 0.5086354503153329
3410 3409 0.13222106542121032
3409 3410 0.13222106542121026
3410 3410 0.4946858993929313
3411 3410 -0.13067782843022754
3410 3411 -0.13067782843022746
3411 3411 0.505467576924748
3412 3411 -0.12628660391772514
3411 3412 -0.12628660391772517
3412 3412 0.5011524005394798
3413 3412 -0.12891461834729778
3412 3413 -0.12891461834729784
3413 3413 0.5059451456312538
3414 3413 -0.12841655561443263
3413 3414 -0.12841655561443266
3414 3414 0.4976294389775126
3415 3414 -0.12546380463531684
3414 3415 -0.12546380463531667
3415 3415 0.503779273248323
3416 3415 0.13323414220423213
3415 3416 0.13323414220423208
3416 3416 0.5040637297574246
3417 3416 0.13074428071060712
3416 3417 0.13074428071060715
3417 3417 0.4996604454533567
3418 3417 -0.13153519219693527
3417 3418 -0.13153519219693527
3418 3418 0.4966215158947802
3419 3418 -0.12798594108998118
3418 3419 -0.12798594108998118
3419 3419 0.49477930344964216
3420 3419 0.12779030211519565
3419 3420 0.1277903021151956
3420 3420 0.497142342194331
3421 3420 -0.1283840753733355
3420 3421 -0.1283840753733355
3421 3421 0.5000763026501196
3422 3421 0.131702124929309
3421 3422 0.13170212492930897
3422 3422 0.5011956306977396
3423 3422 -0.12744783101457416
3422 3423 -0.12744783101457408
3423 3423 0.5029796100992736
3424 3423 -0.12524655387907135
3423 3424 -0.12524655387907127
3424 3424 0.49439256601549714
3425 3424 -0.12543951097562628
3424 3425 -0.12543951097562625
3425 3425 0.5031628955771582
3426 3425 0.1295394081466687
3425 3426 0.12953940814666876
3426 3426 0.5067860662150865
3427 3426 -0.12731591009929277
3426 3427 -0.12731591009929275
3427 3427 0.4972326304526825
3428 3427 0.12807408316498534
3427 3428 0.12807408316498536
3428 3428 0.5007655383418934
3429 3428 -0.12710424861367234
3428 3429 -0.1271042486136723
3429 3429 0.5033571153826202
3430 3429 0.134653865096985
3429 3430 0.13465386509698493
3430 3430 0.5047340340867746
3431 3430 0.12927377326430262
3430 3431 0.1292737732643026
3431 3431 0.4949834362678912
3432 3431 -0.13024289070659548
3431 3432 -0.1302428907065954
3432 3432 0.49680675330453294
3433 3432 -0.12819954576165674
3432 3433 -0.12819954576165665
3433 3433 0.5058581455749276
3434 3433 0.13031228420987484
3433 3434 0.13031228420987478
3434 3434 0.49586284443666895
3435 3434 0.1273684419537989
3434 3435 0.12736844195379896
3435 3435 0.4999498170048847
3436 3435 -0.12872859637339035
3435 3436 -0.12872859637339024
3436 3436 0.49766015677722514
3437 3436 0.12394939788566002
3436 3437 0.12394939788565992
3437 3437 0.49584438428902294
3438 3437 0.12607949037245236
3437 3438 0.1260794903724523
3438 3438 0.49621242691389356
3439 3438 -0.1267728704570072
3438 3439 -0.1267728704570072
3439 3439 0.4988412905254365
3440 3439 0.12840352079980077
3439 3440 0.12840352079980072
3440 3440 0.4929885062683112
3441 3440 -0.12913309988502383
3440 3441 -0.1291330998850239
3441 3441 0.5016729565557756
3442 3441 0.1264522631617592
3441 3442 0.1264522631617592
3442 3442 0.5013963583139057
3443 3442 -0.12916870471714656
3442 3443 -0.12916870471714653
3443 3443 0.506922917956074
3444 3443 -0.12002062008386602
3443 3444 -0.12002062008386614
3444 3444 0.5029700325494519
3445 3444 0.12348599642869958
3444 3445 0.12348599642869955
3445 3445 0.5001709072332869
3446 3445 -0.12566719502972518
3445 3446 -0.12566719502972518
3446 3446 0.5029478210968665
3447 3446 -0.12837487700231964
3446 3447 -0.12837487700231967
3447 3447 0.49896686647588073
3448 3447 0.12689151557068729
3447 3448 0.12689151557068717
3448 3448 0.5013178698092573
3449 3448 0.12492416106138973
3448 3449 0.12492416106138973
3449 3449 0.5052253532930784
3450 3449 0.12988260806073093
3449 3450 0.129882608060731
3450 3450 0.4967191582653494
3451 3450 -0.1240492089771167
3450 3451 -0.12404920897711662
3451 3451 0.5029361154556466
3452 3451 0.12744056643565355
3451 3452 0.1274405664356536
3452 3452 0.5023443174286775
3453 3452 0.12199483018980171
3452 3453 0.12199483018980166
3453 3453 0.49731105966826145
3454 3453 0.12587536516912515
3453 3454 0.12587536516912518
3454 3454 0.506124082666612
3455 3454 -0.12756242170363868
3454 3455 -0.12756242170363863
3455 3455 0.49950244323058074
3456 3455 -0.12444932359790277
3455 3456 -0.12444932359790276
3456 3456 0.49964938211898124
3457 3456 0.12811373104777116
3456 3457 0.1281137310477711
3457 3457 0.5076115672048382
3458 3457 -0.13016789771675655
3457 3458 -0.13016789771675658
3458 3458 0.5039678325994066
3459 3458 -0.11925967372720833
3458 3459 -0.11925967372720825
3459 3459 0.4943840520144536
3460 3459 -0.12759254107487444
3459 3460 -0.1275925410748744
3460 3460 0.50672405131228
3461 3460 -0.13108411440519221
3460 3461 -0.1310841144051922
3461 3461 0.5025241113404187
3462 3461 -0.12980865874507666
3461 3462 -0.12980865874507674
3462 3462 0.491140154838729
3463 3462 0.12715322719989197
3462 3463 0.12715322719989194
3463 3463 0.4974266501162834
3464 3463 -0.12688993146789315
3463 3464 -0.12688993146789307
3464 3464 0.4966315901836141
3465 3464 -0.12364812355985591
3464 3465 -0.1236481235598559
3465 3465 0.5034033560015738
3466 3465 0.12426884073714177
3465 3466 0.12426884073714176
3466 3466 0.48998440369967616
3467 3466 -0.12196375512240264
3466 3467 -0.12196375512240261
3467 3467 0.49888815550690446
3468 3467 0.1221730657151204
3467 3468 0.12217306571512039
3468 3468 0.49610943863473533
3469 3468 -0.1267962455570518
3468 3469 -0.12679624555705185
3469 3469 0.491963013724089
3470 3469 0.12572417761549418
3469 3470 0.12572417761549418
3470 3470 0.5009207863013334
3471 3470 0.12156917654983553
3470 3471 0.12156917654983543
3471 3471 0.5031159463806553
3472 3471 -0.1289235166542412
3471 3472 -0.12892351665424132
3472 3472 0.5033225310519753
3473 3472 0.1256015795219019
3472 3473 0.1256015795219019
3473 3473 0.49831114243247543
3474 3473 -0.12567554570679995
3473 3474 -0.12567554570680003
3474 3474 0.5007933435104992
3475 3474 0.12643305561521903
3474 3475 0.1264330556152191
3475 3475 0.49858730650103816
3476 3475 -0.12441017770139333
3475 3476 -0.12441017770139326
3476 3476 0.5102376089190432
3477 3476 0.12387814683784097
3476 3477 0.123878146837841
3477 3477 0.4970930863769421
3478 3477 -0.1255208948869356
3477 3478 -0.12552089488693557
3478 3478 0.4985942336231329
3479 3478 -0.12285316784393868
3478 3479 -0.12285316784393875
3479 3479 0.5002745337042787
3480 3479 -0.12220452753941694
3479 3480 -0.12220452753941691
3480 3480 0.48835944979852014
3481 3480 -0.12444563169778679
3480 3481 -0.1244456316977868
3481 3481 0.5034657748579981
3482 3481 0.12439197213068759
3481 3482 0.1243919721306875
3482 3482 0.5009177732109626
3483 3482 0.12092620730912816
3482 3483 0.12092620730912806
3483 3483 0.49114593335732826
3484 3483 0.12205523275007953
3483 3484 0.12205523275007953
3484 3484 0.4995211298063529
3485 3484 0.12165140957980958
3484 3485 0.12165140957980955
3485 3485 0.5010078275672508
3486 3485 -0.1242314938179143
3485 3486 -0.12423149381791429
3486 3486 0.5008409935002769
3487 3486 0.11983920021234247
3486 3487 0.11983920021234241
3487 3487 0.5007448845958649
3488 3487 -0.12105913079857918
3487 3488 -0.12105913079857913
3488 3488 0.49829184142226707
3489 3488 -0.12275035529704569
3488 3489 -0.12275035529704569
3489 3489 0.48940098069158305
3490 3489 -0.12391400435536015
3489 3490 -0.12391400435536024
3490 3490 0.5019203561401203
3491 3490 0.12163129352064744
3490 3491 0.1216312935206474
3491 3491 0.5032058783989405
3492 3491 0.1197230863725189
3491 3492 0.1197230863725189
3492 3492 0.5065046752876007
3493 3492 -0.11923602234183592
3492 3493 -0.11923602234183596
3493 3493 0.4977496907100814
3494 3493 -0.12061834462632542
3493 3494 -0.12061834462632542
3494 3494 0.496010734612576
3495 3494 0.12500767784418576
3494 3495 0.12500767784418582
3495 3495 0.5037464344217153
3496 3495 0.12359073536292654
3495 3496 0.12359073536292654
3496 3496 0.5015229197716657
3497 3496 0.12334526418183768
3496 3497 0.12334526418183762
3497 3497 0.4994927266695789
3498 3497 0.12178714123071326
3497 3498 0.12178714123071324
3498 3498 0.49634075274393974
3499 3498 -0.12279300177950184
3498 3499 -0.12279300177950195
3499 3499 0.504325645823138
3500 3499 0.12179055813932943
3499 3500 0.12179055813932946
3500 3500 0.4990089652720074
3501 3500 0.12195670921588354
3500 3501 0.12195670921588356
3501 3501 0.5087169927036187
3502 3501 -0.11888381644311248
3501 3502 -0.11888381644311244
3502 3502 0.5096860341286348
3503 3502 -0.12342697733918429
3502 3503 -0.12342697733918423
3503 3503 0.5041417354702286
3504 3503 0.12089348527014868
3503 3504 0.1208934852701487
3504 3504 0.49907752984883585
3505 3504 0.12233735297736709
3504 3505 0.12233735297736717
3505 3505 0.49069211193431844
3506 3505 0.11650536840004835
3505 3506 0.11650536840004838
3506 3506 0.5073784117057456
3507 3506 -0.1206191219478446
3506 3507 -0.12061912194784456
3507 3507 0.49899188882870804
3508 3507 -0.12379445968568276
3507 3508 -0.12379445968568278
3508 3508 0.5110813987343878
3509 3508 -0.11922147754799416
3508 3509 -0.11922147754799416
3509 3509 0.501927347520656
3510 3509 0.11466073878914192
3509 3510 0.11466073878914193
3510 3510 0.5026196099872345
3511 3510 -0.12496671421472569
3510 3511 -0.12496671421472566
3511 3511 0.5056472631658251
3512 3511 0.12181760791370938
3511 3512 0.12181760791370949
3512 3512 0.4966977378927343
3513 3512 -0.11906107325693446
3512 3513 -0.11906107325693453
3513 3513 0.4976784412588819
3514 3513 -0.12155953238600149
3513 3514 -0.1215595323860015
3514 3514 0.5102575559496962
3515 3514 -0.11920936324078264
3514 3515 -0.11920936324078277
3515 3515 0.4991222575731331
3516 3515 0.1193771434657851
3515 3516 0.1193771434657851
3516 3516 0.4965502204921072
3517 3516 -0.11827647064710357
3516 3517 -0.11827647064710363
3517 3517 0.49461619242502186
3518 3517 -0.11495238376059543
3517 3518 -0.11495238376059551
3518 3518 0.5015751524958046
3519 3518 0.11951435792821233
3518 3519 0.11951435792821234
3519 3519 0.49275688030365383
3520 3519 -0.12452461846735541
3519 3520 -0.12452461846735532
3520 3520 0.5128486879817911
3521 3520 0.12402023100448098
3520 3521 0.12402023100448097
3521 3521 0.49306471161630583
3522 3521 -0.1209803885622399
3521 3522 -0.12098038856223992
3522 3522 0.4986491610572415
3523 3522 -0.11582095689347571
3522 3523 -0.1158209568934757
3523 3523 0.5061349678264468
3524 3523 -0.11514213028956562
3523 3524 -0.11514213028956571
3524 3524 0.4903106638022777
3525 3524 -0.11912083703469382
3524 3525 -0.11912083703469387
3525 3525 0.4967703453224026
3526 3525 -0.11733845230681349
3525 3526 -0.1173384523068135
3526 3526 0.49834177667121543
3527 3526 -0.12013880244435136
3526 3527 -0.12013880244435139
3527 3527 0.498139568387659
3528 3527 0.11567921660313953
3527 3528 0.11567921660313958
3528 3528 0.5048840626043681
3529 3528 0.11610080767429386
3528 3529 0.1161008076742939
3529 3529 0.49794255467842047
3530 3529 0.11616084528932145
3529 3530 0.1161608452893215
3530 3530 0.49988920022554945
3531 3530 -0.11780341659105886
3530 3531 -0.11780341659105888
3531 3531 0.4918088856827721
3532 3531 0.11886816353961377
3531 3532 0.11886816353961391
3532 3532 0.4901631109104212
3533 3532 0.11407617332654642
3532 3533 0.11407617332654651
3533 3533 0.4996891892280125
3534 3533 0.11518084427830401
3533 3534 0.115180844278304
3534 3534 0.5025393897852806
3535 3534 0.11752157050467912
3534 3535 0.1175215705046792
3535 3535 0.5000741234843538
3536 3535 0.11475687149019508
3535 3536 0.11475687149019502
3536 3536 0.4999382927821332
3537 3536 -0.11621110862180033
3536 3537 -0.11621110862180026
3537 3537 0.4886597181390023
3538 3537 0.11833624496794905
3537 3538 0.11833624496794908
3538 3538 0.5010637191787088
3539 3538 -0.11502888730193336
3538 3539 -0.11502888730193342
3539 3539 0.5076233694923711
3540 3539 0.11527409146264411
3539 3540 0.1152740914626442
3540 3540 0.4898505402845253
3541 3540 -0.11574157490102165
3540 3541 -0.11574157490102165
3541 3541 0.508899964587495
3542 3541 0.11323785270603864
3541 3542 0.11323785270603859
3542 3542 0.500345577633976
3543 3542 0.11583278475010773
3542 3543 0.11583278475010779
3543 3543 0.5005482360038058
3544 3543 0.11579674409245524
3543 3544 0.11579674409245524
3544 3544 0.4995887234830465
3545 3544 0.11996394899608787
3544 3545 0.11996394899608788
3545 3545 0.499245430019957
3546 3545 -0.1162439932650429
3545 3546 -0.11624399326504284
3546 3546 0.5046613903678312
3547 3546 0.11467294044768554
3546 3547 0.11467294044768542
3547 3547 0.5091604128504197
3548 3547 0.11590430288851657
3547 3548 0.11590430288851669
3548 3548 0.501143113103815
3549 3548 -0.11632757865124536
3548 3549 -0.11632757865124538
3549 3549 0.49853935045317266
3550 3549 0.12013864915091405
3549 3550 0.12013864915091409
3550 3550 0.4952610257413517
3551 3550 -0.11185121799680033
3550 3551 -0.11185121799680023
3551 3551 0.5014503875490208
3552 3551 0.11661273686699469
3551 3552 0.11661273686699467
3552 3552 0.4952811719631311
3553 3552 0.111612412307856
3552 3553 0.11161241230785596
3553 3553 0.504077790837737
3554 3553 0.11525743075188428
3553 3554 0.11525743075188431
3554 3554 0.5013298517406284
3555 3554 0.11357093300897331
3554 3555 0.11357093300897328
3555 3555 0.49580996545996436
3556 3555 0.11152442105319037
3555 3556 0.11152442105319037
3556 3556 0.49377083184621795
3557 3556 -0.11267653672876246
3556 3557 -0.11267653672876246
3557 3557 0.5004723494973812
3558 3557 0.11597240609436121
3557 3558 0.11597240609436105
3558 3558 0.49742432169065876
3559 3558 -0.1125377408753699
3558 3559 -0.11253774087536983
3559 3559 0.5008354173060909
3560 3559 0.11885038150410265
3559 3560 0.11885038150410271
3560 3560 0.5126164199889065
3561 3560 0.11503470435730236
3560 3561 0.11503470435730248
3561 3561 0.501133831655354
3562 3561 0.11303471720876644
3561 3562 0.11303471720876651
3562 3562 0.49816867880231513
3563 3562 0.11868297234112853
3562 3563 0.1186829723411286
3563 3563 0.49534484776086346
3564 3563 -0.1083515426996435
3563 3564 -0.10835154269964337
3564 3564 0.49238694263708066
3565 3564 0.10758785767613782
3564 3565 0.1075878576761379
3565 3565 0.49734857022712153
3566 3565 -0.11944703032094148
3565 3566 -0.11944703032094145
3566 3566 0.5033887809271633
3567 3566 0.10637147834329659
3566 3567 0.1063714783432966
3567 3567 0.48903665723998874
3568 3567 -0.11700693328104184
3567 3568 -0.11700693328104175
3568 3568 0.4995017478982719
3569 3568 0.1112820886961563
3568 3569 0.11128208869615634
3569 3569 0.5111544354609403
3570 3569 -0.11333094580693008
3569 3570 -0.11333094580693001
3570 3570 0.5028499692878545
3571 3570 0.11446874742896297
3570 3571 0.1144687474289629
3571 3571 0.4972872471656333
3572 3571 -0.10680246062569775
3571 3572 -0.10680246062569772
3572 3572 0.49020777416061356
3573 3572 0.10699644040818128
3572 3573 0.10699644040818126
3573 3573 0.4994398688266029
3574 3573 0.11284295681457289
3573 3574 0.1128429568145729
3574 3574 0.5013514527903753
3575 3574 0.10969974312359164
3574 3575 0.10969974312359165
3575 3575 0.5014355595019692
3576 3575 0.11352877658353105
3575 3576 0.1135287765835311
3576 3576 0.4962342924419666
3577 3576 -0.11056122102175894
3576 3577 -0.11056122102175896
3577 3577 0.5057297036304114
3578 3577 0.11490992912843137
3577 3578 0.1149099291284313
3578 3578 0.4954321701712044
3579 3578 0.11328867167825517
3578 3579 0.11328867167825524
3579 3579 0.4999347670536214
3580 3579 0.11084248110404406
3579 3580 0.110842481104044
3580 3580 0.49501420194008816
3581 3580 0.10727716388351939
3580 3581 0.10727716388351943
3581 3581 0.4897674639565792
3582 3581 -0.1119744079651243
3581 3582 -0.11197440796512428
3582 3582 0.4956190580536399
3583 3582 0.11216194272726565
3582 3583 0.11216194272726562
3583 3583 0.4954376567309289
3584 3583 0.10943785331624262
3583 3584 0.1094378533162427
3584 3584 0.505042993194541
3585 3584 -0.11036996132655162
3584 3585 -0.11036996132655161
3585 3585 0.4907467848951933
3586 3585 0.10782632368598945
3585 3586 0.10782632368598943
3586 3586 0.5046140377219088
3587 3586 0.1161044561533564
3586 3587 0.11610445615335652
3587 3587 0.503584400464051
3588 3587 -0.1091750423198069
3587 3588 -0.10917504231980675
3588 3588 0.5056935117093158
3589 3588 -0.11186014191750046
3588 3589 -0.11186014191750049
3589 3589 0.49673110227758555
3590 3589 0.1131537540406411
3589 3590 0.11315375404064103
3590 3590 0.4970189106950613
3591 3590 -0.10258184236295685
3590 3591 -0.10258184236295684
3591 3591 0.4993235616590197
3592 3591 -0.11117937011683451
3591 3592 -0.11117937011683435
3592 3592 0.5023654962759386
3593 3592 0.10783104394593782
3592 3593 0.1078310439459378
3593 3593 0.4966822333353084
3594 3593 -0.11257523479739275
3593 3594 -0.11257523479739265
3594 3594 0.5059863784261867
3595 3594 0.10637232432193566
3594 3595 0.10637232432193569
3595 3595 0.5077923712171315
3596 3595 -0.11697932493502065
3595 3596 -0.11697932493502061
3596 3596 0.5061461782348717
3597 3596 -0.11086269305541992
3596 3597 -0.1108626930554199
3597 3597 0.5054902763580051
3598 3597 0.11071110464477414
3597 3598 0.11071110464477416
3598 3598 0.5028757175577822
3599 3598 0.11431077290275511
3598 3599 0.11431077290275506
3599 3599 0.4956829695996043
3600 3599 0.10896097782205863
3599 3600 0.10896097782205874
3600 3600 0.5059881735930731
3601 3600 -0.11105087859570356
3600 3601 -0.11105087859570359
3601 3601 0.5077021624743461
3602 3601 0.10861879316354138
3601 3602 0.10861879316354145
3602 3602 0.4891407924027181
3603 3602 -0.11229977642167732
3602 3603 -0.1122997764216773
3603 3603 0.5029086187624074
3604 3603 0.10886678926061819
3603 3604 0.10886678926061812
3604 3604 0.5003670808914559
3605 3604 0.10461176629311263
3604 3605 0.1046117662931125
3605 3605 0.49679802586556004
3606 3605 0.11110593139237819
3605 3606 0.11110593139237823
3606 3606 0.5040932825356296
3607 3606 0.10595443177803787
3606 3607 0.10595443177803791
3607 3607 0.49602754907628976
3608 3607 -0.10889295420647846
3607 3608 -0.10889295420647846
3608 3608 0.495024378544423
3609 3608 0.10834595947691249
3608 3609 0.10834595947691245
3609 3609 0.4967316270215996
3610 3609 -0.10514325731102386
3609 3610 -0.10514325731102392
3610 3610 0.49739371678667843
3611 3610 -0.10345282030615623
3610 3611 -0.10345282030615618
3611 3611 0.5012386109556325
3612 3611 -0.10803925946710859
3611 3612 -0.10803925946710857
3612 3612 0.49690521913012525
3613 3612 -0.10762766354794165
3612 3613 -0.10762766354794161
3613 3613 0.508565145371026
3614 3613 -0.1099709390506672
3613 3614 -0.10997093905066722
3614 3614 0.49431986972016506
3615 3614 -0.10705966873048509
3614 3615 -0.10705966873048511
3615 3615 0.497891980498505
3616 3615 0.10533846111652566
3615 3616 0.10533846111652564
3616 3616 0.4881142864574592
3617 3616 0.10692139516760088
3616 3617 0.10692139516760088
3617 3617 0.49440196574719275
3618 3617 -0.10558446958418287
3617 3618 -0.10558446958418283
3618 3618 0.5073647456208863
3619 3618 0.10383392774952949
3618 3619 0.10383392774952943
3619 3619 0.501903782961262
3620 3619 0.10662273345317194
3619 3620 0.10662273345317194
3620 3620 0.5007783747458847
3621 3620 -0.10226502345965727
3620 3621 -0.10226502345965724
3621 3621 0.4984120785499347
3622 3621 0.1055307970143036
3621 3622 0.1055307970143036
3622 3622 0.5010004808499515
3623 3622 -0.10366972781645782
3622 3623 -0.1036697278164578
3623 3623 0.49882705562608626
3624 3623 -0.10539548327882092
3623 3624 -0.10539548327882092
3624 3624 0.506747871165245
3625 3624 -0.10689866283093334
3624 3625 -0.10689866283093336
3625 3625 0.5053843095420595
3626 3625 0.1035379373091788
3625 3626 0.10353793730917882
3626 3626 0.5030252430041262
3627 3626 -0.10809890580273496
3626 3627 -0.10809890580273493
3627 3627 0.5002902323797674
3628 3627 0.1071750805410571
3627 3628 0.10717508054105708
3628 3628 0.5025247160026448
3629 3628 -0.10432744124674026
3628 3629 -0.10432744124674018
3629 3629 0.5088538808874721
3630 3629 -0.10610854092316617
3629 3630 -0.10610854092316631
3630 3630 0.5023062882783083
3631 3630 0.10721354061869764
3630 3631 0.10721354061869759
3631 3631 0.5058447475963121
3632 3631 -0.10496619341440439
3631 3632 -0.10496619341440441
3632 3632 0.5020463345209434
3633 3632 0.10610091730659098
3632 3633 0.10610091730659096
3633 3633 0.5044627580770299
3634 3633 0.10317780494263218
3633 3634 0.1031778049426321
3634 3634 0.5045074357926155
3635 3634 -0.1055922558378478
3634 3635 -0.10559225583784781
3635 3635 0.5126895675167558
3636 3635 -0.10418763463931534
3635 3636 -0.10418763463931541
3636 3636 0.5010999726689911
3637 3636 -0.10248395120201516
3636 3637 -0.10248395120201526
3637 3637 0.5039770767096785
3638 3637 -0.10365780690217324
3637 3638 -0.10365780690217324
3638 3638 0.499074155377898
3639 3638 0.10059248067354577
3638 3639 0.10059248067354573
3639 3639 0.4955466517701074
3640 3639 0.10572902587695716
3639 3640 0.10572902587695722
3640 3640 0.4960304373577037
3641 3640 -0.10402758381482716
3640 3641 -0.1040275838148272
3641 3641 0.5004482105436308
3642 3641 0.10478732211461989
3641 3642 0.10478732211461997
3642 3642 0.5032965787828404
3643 3642 0.1019003564273067
3642 3643 0.10190035642730666
3643 3643 0.4932612701514805
3644 3643 0.10847216199930146
3643 3644 0.10847216199930147
3644 3644 0.4960725236558564
3645 3644 -0.10499706392053113
3644 3645 -0.10499706392053111
3645 3645 0.49617503575107214
3646 3645 -0.10311567912188117
3645 3646 -0.10311567912188113
3646 3646 0.4940834168058742
3647 3646 -0.10417169057214319
3646 3647 -0.10417169057214314
3647 3647 0.5030086895398665
3648 3647 0.10529001444490614
3647 3648 0.10529001444490613
3648 3648 0.49688819903263937
3649 3648 -0.10217461086117473
3648 3649 -0.10217461086117464
3649 3649 0.5138042215910998
3650 3649 -0.10210534525459285
3649 3650 -0.10210534525459278
3650 3650 0.5074010431830133
3651 3650 0.10553514382502084
3650 3651 0.10553514382502088
3651 3651 0.4973535469462743
3652 3651 -0.09985078716257435
3651 3652 -0.09985078716257428
3652 3652 0.5023591406851438
3653 3652 0.09897475790755557
3652 3653 0.09897475790755553
3653 3653 0.5022810785016832
3654 3653 -0.09963075445737618
3653 3654 -0.09963075445737617
3654 3654 0.5004685689660082
3655 3654 -0.09926349902426736
3654 3655 -0.09926349902426726
3655 3655 0.5015756627482807
3656 3655 -0.09884540329905968
3655 3656 -0.09884540329905969
3656 3656 0.5019071501805914
3657 3656 -0.10309797324177357
3656 3657 -0.10309797324177361
3657 3657 0.4967966378655696
3658 3657 -0.10096373032276591
3657 3658 -0.1009637303227659
3658 3658 0.5019900801562598
3659 3658 0.1004493338707138
3658 3659 0.10044933387071395
3659 3659 0.5072316171835167
3660 3659 0.10108522724305063
3659 3660 0.10108522724305062
3660 3660 0.5028309510426107
3661 3660 0.10087624756780628
3660 3661 0.10087624756780635
3661 3661 0.49632577091674424
3662 3661 -0.10218967561274671
3661 3662 -0.10218967561274672
3662 3662 0.5058850913789075
3663 3662 -0.09812614097554676
3662 3663 -0.09812614097554681
3663 3663 0.49896849959350986
3664 3663 -0.1004254682794447
3663 3664 -0.10042546827944468
3664 3664 0.507224569399475
3665 3664 -0.10430563961615252
3664 3665 -0.1043056396161525
3665 3665 0.4888392323516152
3666 3665 0.09973574871144476
3665 3666 0.09973574871144475
3666 3666 0.49674655635186665
3667 3666 -0.098632518210921
3666 3667 -0.09863251821092098
3667 3667 0.4968784411969444
3668 3667 0.10508882272244827
3667 3668 0.10508882272244824
3668 3668 0.5003602596671327
3669 3668 0.10083879215178293
3668 3669 0.1008387921517829
3669 3669 0.49243765044158866
3670 3669 0.09851982570945517
3669 3670 0.09851982570945507
3670 3670 0.5061394483681556
3671 3670 -0.1040897583581515
3670 3671 -0.1040897583581514
3671 3671 0.49701016770838796
3672 3671 0.09977417165568998
3671 3672 0.09977417165568997
3672 3672 0.5009856922342055
3673 3672 0.09633582955281438
3672 3673 0.09633582955281438
3673 3673 0.5070876093515391
3674 3673 -0.0998348979332601
3673 3674 -0.09983489793326003
3674 3674 0.49654362851800554
3675 3674 0.0998454750260777
3674 3675 0.09984547502607762
3675 3675 0.4896964625549278
3676 3675 -0.10344677189573298
3675 3676 -0.10344677189573308
3676 3676 0.5008686781625353
3677 3676 -0.10231626922461894
3676 3677 -0.10231626922461892
3677 3677 0.4919373557153746
3678 3677 0.09772874846828669
3677 3678 0.09772874846828661
3678 3678 0.49078375419562614
3679 3678 -0.10042382610850296
3678 3679 -0.10042382610850287
3679 3679 0.4988685777147176
3680 3679 -0.0981281452130614
3679 3680 -0.09812814521306146
3680 3680 0.49484437255195873
3681 3680 0.09978860512095283
3680 3681 0.09978860512095286
3681 3681 0.503801025778286
3682 3681 0.09223751997003507
3681 3682 0.09223751997003511
3682 3682 0.4927123482712896
3683 3682 -0.09028972745529694
3682 3683 -0.090289727455297
3683 3683 0.5028124035149371
3684 3683 0.0926799736203579
3683 3684 0.09267997362035793
3684 3684 0.5095696330694224
3685 3684 0.09377776952906541
3684 3685 0.09377776952906541
3685 3685 0.49525735346384864
3686 3685 -0.10051810092877482
3685 3686 -0.10051810092877492
3686 3686 0.494973516513391
3687 3686 0.09404097815198668
3686 3687 0.09404097815198675
3687 3687 0.5018020687851474
3688 3687 -0.0958351423783618
3687 3688 -0.09583514237836183
3688 3688 0.5040831431760163
3689 3688 -0.09555774192260856
3688 3689 -0.09555774192260857
3689 3689 0.49140220842512383
3690 3689 -0.10226668084337279
3689 3690 -0.10226668084337273
3690 3690 0.5027729187788254
3691 3690 -0.0971481663246504
3690 3691 -0.09714816632465043
3691 3691 0.49803150274988517
3692 3691 -0.09153124093388271
3691 3692 -0.09153124093388272
3692 3692 0.50196707010173
3693 3692 -0.09577665244103736
3692 3693 -0.09577665244103743
3693 3693 0.49765775025828507
3694 3693 -0.09495058490460871
3693 3694 -0.09495058490460875
3694 3694 0.49120729680913056
3695 3694 -0.09367308628366133
3694 3695 -0.09367308628366128
3695 3695 0.5002350660741293
3696 3695 0.09580793346084082
3695 3696 0.09580793346084078
3696 3696 0.49612887039996884
3697 3696 0.10028590559186525
3696 3697 0.10028590559186519
3697 3697 0.5082131146373003
3698 3697 -0.09758160916514484
3697 3698 -0.09758160916514484
3698 3698 0.5046428494880719
3699 3698 -0.10017813731333146
3698 3699 -0.10017813731333142
3699 3699 0.49943855221615174
3700 3699 -0.09693634537521213
3699 3700 -0.09693634537521209
3700 3700 0.5002976806219047
3701 3700 -0.09510453189969481
3700 3701 -0.09510453189969478
3701 3701 0.49962147591951916
3702 3701 -0.09513833577569761
3701 3702 -0.09513833577569772
3702 3702 0.5044303110516393
3703 3702 -0.09264989454319593
3702 3703 -0.09264989454319594
3703 3703 0.49986116120858176
3704 3703 0.09507376109055321
3703 3704 0.09507376109055324
3704 3704 0.4976852292872969
3705 3704 -0.09422548671765989
3704 3705 -0.09422548671765991
3705 3705 0.4976067944773191
3706 3705 0.09631706306343465
3705 3706 0.09631706306343468
3706 3706 0.49188942231672744
3707 3706 -0.09625608809011811
3706 3707 -0.09625608809011808
3707 3707 0.5024476116080174
3708 3707 -0.09411451530108013
3707 3708 -0.09411451530108014
3708 3708 0.501024925661665
3709 3708 0.09545449169330314
3708 3709 0.09545449169330314
3709 3709 0.5018093018803047
3710 3709 -0.09194564766415944
3709 3710 -0.09194564766415947
3710 3710 0.5001349292754096
3711 3710 -0.09171606249192477
3710 3711 -0.09171606249192477
3711 3711 0.5064893390036349
3712 3711 -0.09383951064708515
3711 3712 -0.09383951064708514
3712 3712 0.49425634590201956
3713 3712 0.09238726042577636
3712 3713 0.0923872604257763
3713 3713 0.492593605731953
3714 3713 -0.0955280861069492
3713 3714 -0.09552808610694921
3714 3714 0.5006038364692754
3715 3714 0.09176054190559753
3714 3715 0.09176054190559749
3715 3715 0.5001598284064608
3716 3715 -0.09193223597796718
3715 3716 -0.09193223597796732
3716 3716 0.503964739858882
3717 3716 -0.09184609079228281
3716 3717 -0.09184609079228281
3717 3717 0.49657515138139907
3718 3717 -0.08807272052333426
3717 3718 -0.08807272052333429
3718 3718 0.5026452454295425
3719 3718 -0.09276151938432292
3718 3719 -0.0927615193843229
3719 3719 0.5002361399498794
3720 3719 0.08893548244915676
3719 3720 0.08893548244915671
3720 3720 0.5021603534459053
3721 3720 0.08805557874171059
3720 3721 0.08805557874171065
3721 3721 0.5054268715221748
3722 3721 0.08827096965737435
3721 3722 0.08827096965737431
3722 3722 0.5078323915090573
3723 3722 0.09044227923748231
3722 3723 0.09044227923748228
3723 3723 0.49438915282072715
3724 3723 0.09497955564290862
3723 3724 0.09497955564290853
3724 3724 0.501271993325723
3725 3724 0.08961221778538779
3724 3725 0.08961221778538773
3725 3725 0.5029431021627992
3726 3725 -0.08787976847346594
3725 3726 -0.08787976847346596
3726 3726 0.4951702206439306
3727 3726 -0.09504904403915605
3726 3727 -0.09504904403915612
3727 3727 0.500650737338497
3728 3727 0.09635425945615575
3727 3728 0.09635425945615579
3728 3728 0.4974319481923965
3729 3728 -0.08964897515166341
3728 3729 -0.08964897515166317
3729 3729 0.5049672703695135
3730 3729 0.09359797616317754
3729 3730 0.09359797616317751
3730 3730 0.5020121963635056
3731 3730 0.09154981417921702
3730 3731 0.09154981417921701
3731 3731 0.4995267575636265
3732 3731 -0.0911993190705011
3731 3732 -0.0911993190705011
3732 3732 0.49490748420070674
3733 3732 -0.09029865334668147
3732 3733 -0.09029865334668154
3733 3733 0.5067707283415925
3734 3733 0.08948117150698802
3733 3734 0.08948117150698795
3734 3734 0.5078427572481448
3735 3734 0.0911175868376798
3734 3735 0.09111758683767973
3735 3735 0.5023005030072877
3736 3735 0.0921325796492177
3735 3736 0.09213257964921766
3736 3736 0.4967510612572497
3737 3736 0.08800328487164587
3736 3737 0.08800328487164585
3737 3737 0.5100819176348091
3738 3737 0.09160566648505078
3737 3738 0.09160566648505075
3738 3738 0.4970984276487402
3739 3738 0.08658577760020784
3738 3739 0.08658577760020779
3739 3739 0.4962442311462665
3740 3739 -0.09127045207781176
3739 3740 -0.09127045207781175
3740 3740 0.4942617567827698
3741 3740 0.08798144103333863
3740 3741 0.08798144103333862
3741 3741 0.5069045435170122
3742 3741 -0.09048266282211842
3741 3742 -0.09048266282211831
3742 3742 0.49701788405701935
3743 3742 0.08749867151107095
3742 3743 0.08749867151107091
3743 3743 0.5033587397665179
3744 3743 -0.08869974095403609
3743 3744 -0.08869974095403621
3744 3744 0.5024405365427557
3745 3744 -0.08829068007906231
3744 3745 -0.08829068007906245
3745 3745 0.5025318630929454
3746 3745 -0.09512916367848173
3745 3746 -0.09512916367848179
3746 3746 0.493955251248524
3747 3746 0.0880966499163486
3746 3747 0.08809664991634852
3747 3747 0.4977569821549358
3748 3747 -0.08439802031050476
3747 3748 -0.08439802031050472
3748 3748 0.5078741101919004
3749 3748 0.08468728418010404
3748 3749 0.08468728418010404
3749 3749 0.49963777984656593
3750 3749 -0.08818127252992068
3749 3750 -0.08818127252992068
3750 3750 0.4948542819200245
3751 3750 -0.08597559975939427
3750 3751 -0.08597559975939414
3751 3751 0.5039991496689471
3752 3751 -0.08723233995908877
3751 3752 -0.08723233995908869
3752 3752 0.4925427096593754
3753 3752 0.08597153151942269
3752 3753 0.08597153151942274
3753 3753 0.49944338269923183
3754 3753 0.08679379945097772
3753 3754 0.08679379945097783
3754 3754 0.4997995544202704
3755 3754 0.07959813060631298
3754 3755 0.07959813060631293
3755 3755 0.5039742231219881
3756 3755 0.08377561515285581
3755 3756 0.08377561515285584
3756 3756 0.5045892221723073
3757 3756 -0.08403322922260366
3756 3757 -0.0840332292226037
3757 3757 0.499096710998077
3758 3757 -0.08674877928308683
3757 3758 -0.08674877928308686
3758 3758 0.5006928661049179
3759 3758 0.0896778522244501
3758 3759 0.08967785222445011
3759 3759 0.49556756267680935
3760 3759 0.0884376847084211
3759 3760 0.0884376847084211
3760 3760 0.49056502096323085
3761 3760 0.08668503925515522
3760 3761 0.08668503925515532
3761 3761 0.5066232554230484
3762 3761 -0.08009809304379284
3761 3762 -0.08009809304379292
3762 3762 0.5062030695197699
3763 3762 0.08619462009744532
3762 3763 0.08619462009744537
3763 3763 0.5022091466785764
3764 3763 -0.08483695601059708
3763 3764 -0.08483695601059708
3764 3764 0.4890597631030253
3765 3764 0.08780733216025609
3764 3765 0.08780733216025605
3765 3765 0.4982784102714676
3766 3765 -0.08468412564423142
3765 3766 -0.08468412564423139
3766 3766 0.4976738150365876
3767 3766 0.08307778323475933
3766 3767 0.08307778323475931
3767 3767 0.5096506973062642
3768 3767 0.08588389419658989
3767 3768 0.08588389419658994
3768 3768 0.4970949113175074
3769 3768 -0.08336769431762364
3768 3769 -0.08336769431762364
3769 3769 0.5006999658529907
3770 3769 0.08479684151336035
3769 3770 0.08479684151336031
3770 3770 0.5019478093851855
3771 3770 0.08056338713391373
3770 3771 0.08056338713391371
3771 3771 0.4998845248882713
3772 3771 -0.08440753509908831
3771 3772 -0.08440753509908833
3772 3772 0.4887458874700903
3773 3772 -0.08508084407485392
3772 3773 -0.08508084407485395
3773 3773 0.50212171000514
3774 3773 -0.08080392592369312
3773 3774 -0.08080392592369318
3774 3774 0.5069318036262938
3775 3774 0.07825098354894561
3774 3775 0.07825098354894552
3775 3775 0.49963363567772456
3776 3775 -0.08351800344362473
3775 3776 -0.08351800344362481
3776 3776 0.5000740865963973
3777 3776 -0.08010879691646342
3776 3777 -0.0801087969164634
3777 3777 0.5024380524524603
3778 3777 -0.08498477077022595
3777 3778 -0.08498477077022595
3778 3778 0.4983539359544331
3779 3778 0.08086144358875395
3778 3779 0.08086144358875402
3779 3779 0.4999546573063954
3780 3779 -0.08372998913098625
3779 3780 -0.08372998913098623
3780 3780 0.508567112713603
3781 3780 -0.08040388484968218
3780 3781 -0.0804038848496822
3781 3781 0.49859241091468176
3782 3781 -0.08143086607043937
3781 3782 -0.08143086607043934
3782 3782 0.5061622722548742
3783 3782 -0.07875430084919546
3782 3783 -0.07875430084919541
3783 3783 0.5013671527021729
3784 3783 -0.08319669684630722
3783 3784 -0.08319669684630727
3784 3784 0.5063984836458492
3785 3784 0.07866822846501687
3784 3785 0.0786682284650169
3785 3785 0.49096283399289525
3786 3785 -0.08335973019800585
3785 3786 -0.08335973019800574
3786 3786 0.5032375213453127
3787 3786 -0.08422393537676968
3786 3787 -0.08422393537676963
3787 3787 0.4943182621993779
3788 3787 -0.07923257351841204
3787 3788 -0.07923257351841206
3788 3788 0.5031035453495909
3789 3788 -0.07986172039542114
3788 3789 -0.07986172039542112
3789 3789 0.5028191768427771
3790 3789 0.07672656803826948
3789 3790 0.0767265680382694
3790 3790 0.5091969008568864
3791 3790 -0.08158627028729373
3790 3791 -0.0815862702872937
3791 3791 0.4963484692913812
3792 3791 -0.07901967112161717
3791 3792 -0.07901967112161719
3792 3792 0.5033223868485095
3793 3792 0.0802486824473827
3792 3793 0.0802486824473827
3793 3793 0.49941799526818487
3794 3793 0.08252674173463095
3793 3794 0.08252674173463093
3794 3794 0.49907620449996604
3795 3794 0.07859700846391188
3794 3795 0.07859700846391189
3795 3795 0.4963815444981013
3796 3795 -0.07672923406369485
3795 3796 -0.07672923406369475
3796 3796 0.4997529301826291
3797 3796 -0.07898462702451714
3796 3797 -0.07898462702451714
3797 3797 0.4978955350073981
3798 3797 0.08058784488535758
3797 3798 0.0805878448853575
3798 3798 0.5037393114752069
3799 3798 0.07690398661275047
3798 3799 0.07690398661275048
3799 3799 0.5016431198366987
3800 3799 -0.07620864893041622
3799 3800 -0.0762086489304162
3800 3800 0.5040556280487148
3801 3800 -0.07570354633509212
3800 3801 -0.07570354633509205
3801 3801 0.49650287245874913
3802 3801 -0.07776914959867828
3801 3802 -0.07776914959867823
3802 3802 0.4985470664593621
3803 3802 -0.0839678708437428
3802 3803 -0.08396787084374285
3803 3803 0.5040406436848076
3804 3803 -0.07369827286488514
3803 3804 -0.07369827286488524
3804 3804 0.5100862574075482
3805 3804 -0.07636984700319328
3804 3805 -0.07636984700319324
3805 3805 0.48954218211052386
3806 3805 -0.0776510122766044
3805 3806 -0.07765101227660437
3806 3806 0.4969749777232466
3807 3806 0.07942024708201664
3806 3807 0.0794202470820167
3807 3807 0.4992228659844143
3808 3807 0.07499707673526047
3807 3808 0.07499707673526056
3808 3808 0.500158144321719
3809 3808 0.07442049157449673
3808 3809 0.07442049157449672
3809 3809 0.5064969736563532
3810 3809 0.08019848786940853
3809 3810 0.08019848786940859
3810 3810 0.5011716712280775
3811 3810 -0.0760141465954373
3810 3811 -0.07601414659543726
3811 3811 0.504843458334085
3812 3811 -0.07385330858275481
3811 3812 -0.07385330858275477
3812 3812 0.500642571536923
3813 3812 -0.07656537848734501
3812 3813 -0.07656537848734497
3813 3813 0.49345848073978166
3814 3813 0.07297128495475154
3813 3814 0.07297128495475154
3814 3814 0.4972517396157199
3815 3814 -0.07765211611964723
3814 3815 -0.0776521161196472
3815 3815 0.5069008243232798
3816 3815 0.0729427336960278
3815 3816 0.07294273369602779
3816 3816 0.49899646280326326
3817 3816 0.07644728536225698
3816 3817 0.07644728536225691
3817 3817 0.49684480145325066
3818 3817 0.07638365160020004
3817 3818 0.07638365160019998
3818 3818 0.49443216043976357
3819 3818 0.07244663867635172
3818 3819 0.07244663867635172
3819 3819 0.4968137100218548
3820 3819 -0.07349087334961639
3819 3820 -0.07349087334961643
3820 3820 0.49480883331166287
3821 3820 -0.0723390478441756
3820 3821 -0.07233904784417552
3821 3821 0.4963050932719148
3822 3821 -0.0720878517059077
3821 3822 -0.07208785170590773
3822 3822 0.49745457258083603
3823 3822 -0.07504701065789604
3822 3823 -0.07504701065789605
3823 3823 0.5005034822986927
3824 3823 0.06808514495287885
3823 3824 0.06808514495287885
3824 3824 0.4950405350885182
3825 3824 0.07492609775320214
3824 3825 0.07492609775320214
3825 3825 0.49315772171058225
3826 3825 -0.07291478467437293
3825 3826 -0.072914784674373
3826 3826 0.5000414382955557
3827 3826 -0.06939148804060079
3826 3827 -0.06939148804060072
3827 3827 0.5019537011937844
3828 3827 -0.0743484847780346
3827 3828 -0.0743484847780346
3828 3828 0.4959160067599509
3829 3828 0.07393737271132853
3828 3829 0.07393737271132857
3829 3829 0.49699582729682923
3830 3829 -0.07402749987935296
3829 3830 -0.07402749987935295
3830 3830 0.49493030733788457
3831 3830 0.07584209561651294
3830 3831 0.07584209561651292
3831 3831 0.49962778184762674
3832 3831 -0.07422542514482695
3831 3832 -0.07422542514482697
3832 3832 0.49848371723605933
3833 3832 -0.07352272461939757
3832 3833 -0.07352272461939768
3833 3833 0.505432399038555
3834 3833 0.07069989353692131
3833 3834 0.07069989353692127
3834 3834 0.5040487994115688
3835 3834 0.07326218809789035
3834 3835 0.07326218809789042
3835 3835 0.5023887886270078
3836 3835 0.07136686028406974
3835 3836 0.07136686028406972
3836 3836 0.5031870804164456
3837 3836 -0.070736083436502
3836 3837 -0.0707360834365019
3837 3837 0.5047094516591855
3838 3837 0.07324406737620127
3837 3838 0.07324406737620122
3838 3838 0.5069826497705361
3839 3838 0.07170093096780432
3838 3839 0.07170093096780433
3839 3839 0.501057277871741
3840 3839 0.06984963898596168
3839 3840 0.06984963898596168
3840 3840 0.4964260417683558
3841 3840 0.06807905071217026
3840 3841 0.06807905071217027
3841 3841 0.49727634517249164
3842 3841 0.07343503965282476
3841 3842 0.07343503965282468
3842 3842 0.5081778369652191
3843 3842 -0.06857812619793845
3842 3843 -0.06857812619793849
3843 3843 0.4997222002086796
3844 3843 -0.07038646550369553
3843 3844 -0.07038646550369548
3844 3844 0.4919471776631367
3845 3844 0.07250654707251827
3844 3845 0.07250654707251823
3845 3845 0.5072986602522228
3846 3845 0.06655251242311994
3845 3846 0.0665525124231199
3846 3846 0.503455064719979
3847 3846 -0.06565967945457717
3846 3847 -0.06565967945457715
3847 3847 0.5087227949262823
3848 3847 0.07139739748149485
3847 3848 0.07139739748149479
3848 3848 0.49273628449394896
3849 3848 0.06538889333413618
3848 3849 0.0653888933341362
3849 3849 0.4939971195611227
3850 3849 0.0728669921581951
3849 3850 0.07286699215819502
3850 3850 0.4983053783756184
3851 3850 -0.06693644365169875
3850 3851 -0.06693644365169868
3851 3851 0.4995980991067034
3852 3851 -0.0638255277383328
3851 3852 -0.06382552773833272
3852 3852 0.5044361899170193
3853 3852 0.06787933531215405
3852 3853 0.06787933531215401
3853 3853 0.49229829524170177
3854 3853 -0.0653333158354399
3853 3854 -0.06533331583543994
3854 3854 0.5038826051381999
3855 3854 -0.06751694096831584
3854 3855 -0.06751694096831587
3855 3855 0.5056382058916146
3856 3855 0.06380148825961611
3855 3856 0.06380148825961603
3856 3856 0.499792930652369
3857 3856 -0.06754956559073252
3856 3857 -0.06754956559073254
3857 3857 0.49617335271530655
3858 3857 0.06781010127651922
3857 3858 0.06781010127651928
3858 3858 0.5035178264177675
3859 3858 0.06755070676443195
3858 3859 0.06755070676443194
3859 3859 0.5019059564650633
3860 3859 -0.06489271632192013
3859 3860 -0.06489271632192026
3860 3860 0.5023052337990648
3861 3860 0.06351066140851758
3860 3861 0.0635106614085176
3861 3861 0.5044693566068883
3862 3861 -0.06501173089783978
3861 3862 -0.06501173089783985
3862 3862 0.49863285185051315
3863 3862 -0.06374317598008147
3862 3863 -0.06374317598008153
3863 3863 0.5007518879107489
3864 3863 0.0646605298011726
3863 3864 0.0646605298011726
3864 3864 0.4973457318451073
3865 3864 0.06477329070506493
3864 3865 0.06477329070506489
3865 3865 0.5027727647959312
3866 3865 0.06337546613875086
3865 3866 0.0633754661387509
3866 3866 0.5019250323161477
3867 3866 0.059901197267796684
3866 3867 0.05990119726779672
3867 3867 0.5066834709957262
3868 3867 0.06285235164496915
3867 3868 0.0628523516449691
3868 3868 0.5012086895796748
3869 3868 -0.059859793429839686
3868 3869 -0.05985979342983973
3869 3869 0.5047596474340212
3870 3869 0.062084636612005605
3869 3870 0.062084636612005584
3870 3870 0.49866405219273074
3871 3870 0.059062905725338254
3870 3871 0.059062905725338094
3871 3871 0.5036689517606694
3872 3871 0.06622637520555821
3871 3872 0.06622637520555821
3872 3872 0.5056874439922057
3873 3872 -0.05943005255336613
3872 3873 -0.059430052553366246
3873 3873 0.5002031130197182
3874 3873 -0.05989787189614033
3873 3874 -0.05989787189614038
3874 3874 0.5032581774858094
3875 3874 -0.061491638383939534
3874 3875 -0.06149163838393953
3875 3875 0.5092813831087675
3876 3875 0.060029448560559445
3875 3876 0.06002944856055949
3876 3876 0.49954665882175325
3877 3876 -0.06158690602183151
3876 3877 -0.061586906021831374
3877 3877 0.4979528168773889
3878 3877 0.06327729315679577
3877 3878 0.06327729315679587
3878 3878 0.49200346646118737
3879 3878 0.06482059200953237
3878 3879 0.06482059200953241
3879 3879 0.4934358249688809
3880 3879 -0.06256330787203984
3879 3880 -0.06256330787203984
3880 3880 0.49270524267612126
3881 3880 -0.05956608849219796
3880 3881 -0.059566088492197904
3881 3881 0.4971383512298389
3882 3881 -0.06336440265069694
3881 3882 -0.06336440265069694
3882 3882 0.4995826166447775
3883 3882 -0.06526514878794333
3882 3883 -0.06526514878794332
3883 3883 0.4951332005246544
3884 3883 -0.061951586297459324
3883 3884 -0.06195158629745934
3884 3884 0.5060774660468974
3885 3884 -0.05815436363373487
3884 3885 -0.05815436363373482
3885 3885 0.5037416373405836
3886 3885 0.06177447920530124
3885 3886 0.06177447920530124
3886 3886 0.48753676644308136
3887 3886 -0.05571324886372858
3886 3887 -0.05571324886372861
3887 3887 0.49616133525298667
3888 3887 -0.06154813249294957
3887 3888 -0.06154813249294953
3888 3888 0.49666541872925146
3889 3888 0.05864785439886415
3888 3889 0.058647854398864205
3889 3889 0.5066672687967317
3890 3889 0.05779931419356494
3889 3890 0.05779931419356491
3890 3890 0.49231263869019304
3891 3890 0.062489978414286176
3890 3891 0.06248997841428612
3891 3891 0.49829536687782716
3892 3891 -0.059569101586612126
3891 3892 -0.05956910158661208
3892 3892 0.49758959497364913
3893 3892 0.05914966546858465
3892 3893 0.059149665468584606
3893 3893 0.49456080061826313
3894 3893 0.05671089757666587
3893 3894 0.05671089757666586
3894 3894 0.4985413793602016
3895 3894 -0.054249233168905245
3894 3895 -0.05424923316890525
3895 3895 0.502558926792849
3896 3895 0.05615585276684853
3895 3896 0.056155852766848466
3896 3896 0.49759977955541884
3897 3896 0.05633446725772284
3896 3897 0.05633446725772284
3897 3897 0.5036955606047594
3898 3897 -0.05664597372287652
3897 3898 -0.056645973722876525
3898 3898 0.5071529481736677
3899 3898 0.05558091577027657
3898 3899 0.05558091577027651
3899 3899 0.5001007085326358
3900 3899 -0.05582272243115359
3899 3900 -0.05582272243115358
3900 3900 0.4969483614662933
3901 3900 -0.05469070118859034
3900 3901 -0.05469070118859027
3901 3901 0.5003993443523743
3902 3901 -0.055256624782147656
3901 3902 -0.05525662478214756
3902 3902 0.49742342491853603
3903 3902 -0.05155165161452932
3902 3903 -0.05155165161452934
3903 3903 0.5005634229679573
3904 3903 -0.048276963103344735
3903 3904 -0.04827696310334479
3904 3904 0.496351728527871
3905 3904 -0.055265840917566554
3904 3905 -0.05526584091756657
3905 3905 0.49496687155555735
3906 3905 0.05509425395650074
3905 3906 0.055094253956500666
3906 3906 0.49516588538684597
3907 3906 -0.055517570264586154
3906 3907 -0.05551757026458615
3907 3907 0.4952517904476463
3908 3907 -0.05454372122538314
3907 3908 -0.05454372122538321
3908 3908 0.4907284550207723
3909 3908 -0.051551008547043184
3908 3909 -0.051551008547043135
3909 3909 0.5078795657572299
3910 3909 -0.05109295499332385
3909 3910 -0.05109295499332391
3910 3910 0.4920471090218016
3911 3910 0.049187155786195556
3910 3911 0.04918715578619557
3911 3911 0.504249051502919
3912 3911 -0.052838828815902246
3911 3912 -0.0528388288159022
3912 3912 0.5007801719890538
3913 3912 -0.05243365901416665
3912 3913 -0.05243365901416659
3913 3913 0.5087647457263414
3914 3913 -0.05515855261341121
3913 3914 -0.05515855261341115
3914 3914 0.5032331431327722
3915 3914 -0.051081042950741166
3914 3915 -0.0510810429507411
3915 3915 0.505772702460976
3916 3915 0.0558214764413626
3915 3916 0.05582147644136263
3916 3916 0.4941111898186727
3917 3916 -0.05080535144782306
3916 3917 -0.050805351447823104
3917 3917 0.5076422642888432
3918 3917 -0.050066603963537154
3917 3918 -0.05006660396353711
3918 3918 0.49915780335610926
3919 3918 -0.053256444939478356
3918 3919 -0.05325644493947829
3919 3919 0.5067666094637973
3920 3919 0.05358377408592731
3919 3920 0.05358377408592738
3920 3920 0.5010795877065417
3921 3920 -0.049558024180881365
3920 3921 -0.04955802418088141
3921 3921 0.4940387205640102
3922 3921 0.04929840135488526
3921 3922 0.0492984013548852
3922 3922 0.5034695127488906
3923 3922 0.04948302210319407
3922 3923 0.04948302210319425
3923 3923 0.49570290145422224
3924 3923 0.05222022428385949
3923 3924 0.05222022428385951
3924 3924 0.5051136499788259
3925 3924 0.049980210836919475
3924 3925 0.0499802108369194
3925 3925 0.4923529087265374
3926 3925 0.04945698485826767
3925 3926 0.049456984858267654
3926 3926 0.4983234007970137
3927 3926 -0.04970820829259963
3926 3927 -0.04970820829259963
3927 3927 0.5074955663495732
3928 3927 0.04426585759730958
3927 3928 0.044265857597309624
3928 3928 0.499565809802603
3929 3928 -0.047154813075134076
3928 3929 -0.047154813075134
3929 3929 0.5015773844040478
3930 3929 0.0403700841012477
3929 3930 0.04037008410124783
3930 3930 0.5047487074565008
3931 3930 -0.043716025976671465
3930 3931 -0.043716025976671416
3931 3931 0.5006679220932111
3932 3931 -0.04411765698939301
3931 3932 -0.044117656989392885
3932 3932 0.5059917068484899
3933 3932 -0.05053035531775337
3932 3933 -0.05053035531775334
3933 3933 0.49878295386152327
3934 3933 0.042580015637811164
3933 3934 0.042580015637811185
3934 3934 0.5022372558680817
3935 3934 0.04616581414526555
3934 3935 0.046165814145265584
3935 3935 0.4820800114739861
3936 3935 -0.04633203733717627
3935 3936 -0.046332037337176245
3936 3936 0.5070284149056284
3937 3936 -0.04607776990909881
3936 3937 -0.04607776990909878
3937 3937 0.5006770561914855
3938 3937 0.043795509890591715
3937 3938 0.043795509890591715
3938 3938 0.4970017224120778
3939 3938 0.04325408593529972
3938 3939 0.043254085935299745
3939 3939 0.4965793889282096
3940 3939 -0.04148439341143672
3939 3940 -0.041484393411436726
3940 3940 0.4983294531507812
3941 3940 0.040451730947051276
3940 3941 0.04045173094705129
3941 3941 0.5064052110936
3942 3941 0.0472155310751043
3941 3942 0.04721553107510434
3942 3942 0.5020514602388992
3943 3942 -0.04474561156928788
3942 3943 -0.04474561156928792
3943 3943 0.49076042365725137
3944 3943 -0.03892139375981485
3943 3944 -0.03892139375981482
3944 3944 0.5025564483896354
3945 3944 -0.04371445761514897
3944 3945 -0.043714457615149145
3945 3945 0.4983407506206713
3946 3945 -0.04192468559245881
3945 3946 -0.041924685592458794
3946 3946 0.4974843841405235
3947 3946 0.042048261362386485
3946 3947 0.04204826136238653
3947 3947 0.5006749065845434
3948 3947 0.04297312587907023
3947 3948 0.04297312587907019
3948 3948 0.5038374956306729
3949 3948 0.03807638465071831
3948 3949 0.03807638465071832
3949 3949 0.501582568296216
3950 3949 0.04137772723435982
3949 3950 0.041377727234359805
3950 3950 0.4957824471358655
3951 3950 -0.03450385214434966
3950 3951 -0.03450385214434959
3951 3951 0.4877486676445653
3952 3951 -0.03778856233749215
3951 3952 -0.03778856233749211
3952 3952 0.4982442569250405
3953 3952 -0.03538947517139196
3952 3953 -0.03538947517139194
3953 3953 0.5041276387072576
3954 3953 -0.037394084661609
3953 3954 -0.03739408466160891
3954 3954 0.4982708069429611
3955 3954 0.035992758698339775
3954 3955 0.03599275869833979
3955 3955 0.49364457381022575
3956 3955 0.03852474210488593
3955 3956 0.038524742104885844
3956 3956 0.49462610778483196
3957 3956 -0.035851243603179934
3956 3957 -0.03585124360317998
3957 3957 0.4991288690206501
3958 3957 0.03838263183766868
3957 3958 0.03838263183766858
3958 3958 0.503205894248431
3959 3958 0.03698807889757714
3958 3959 0.03698807889757703
3959 3959 0.5031659838844833
3960 3959 0.03729381151035409
3959 3960 0.037293811510354144
3960 3960 0.5026449160846107
3961 3960 0.03357592010698177
3960 3961 0.03357592010698177
3961 3961 0.4920861826540814
3962 3961 0.03381854436537426
3961 3962 0.0338185443653743
3962 3962 0.5034144251247058
3963 3962 -0.03325757373298425
3962 3963 -0.03325757373298415
3963 3963 0.5179920371603384
3964 3963 0.03479542308529239
3963 3964 0.03479542308529242
3964 3964 0.5088806291988232
3965 3964 0.030377907331477768
3964 3965 0.03037790733147788
3965 3965 0.4969896088362441
3966 3965 -0.03541214901895012
3965 3966 -0.03541214901895009
3966 3966 0.4984860867090527
3967 3966 -0.03167243224998801
3966 3967 -0.03167243224998798
3967 3967 0.49182552539594915
3968 3967 -0.03098451425911419
3967 3968 -0.030984514259114092
3968 3968 0.5032213062352696
3969 3968 0.02996326337977654
3968 3969 0.02996326337977665
3969 3969 0.5094533263131552
3970 3969 -0.025131403944768912
3969 3970 -0.025131403944768958
3970 3970 0.5083218930808691
3971 3970 -0.030271104154158388
3970 3971 -0.03027110415415841
3971 3971 0.5022515010621688
3972 3971 -0.02790428358203365
3971 3972 -0.027904283582033586
3972 3972 0.494346976313131
3973 3972 -0.030038656338007824
3972 3973 -0.030038656338007834
3973 3973 0.49308585029139373
3974 3973 0.02711614431967649
3973 3974 0.027116144319676513
3974 3974 0.49758573312410465
3975 3974 -0.028773194649630122
3974 3975 -0.02877319464963017
3975 3975 0.49017064732284255
3976 3975 -0.02121229542436394
3975 3976 -0.021212295424364022
3976 3976 0.49355731437337014
3977 3976 0.028622809332328483
3976 3977 0.02862280933232838
3977 3977 0.51608215791306
3978 3977 0.028396289263599883
3977 3978 0.028396289263599824
3978 3978 0.5010819159654956
3979 3978 -0.03155622465727484
3978 3979 -0.03155622465727479
3979 3979 0.49692599766907886
3980 3979 -0.02371607677997023
3979 3980 -0.023716076779970195
3980 3980 0.4998840696608262
3981 3980 -0.023983969071599966
3980 3981 -0.023983969071599966
3981 3981 0.5118862946235783
3982 3981 0.023912196252991905
3981 3982 0.023912196252991933
3982 3982 0.4900952249734222
3983 3982 0.026256940832538087
3982 3983 0.02625694083253806
3983 3983 0.4922301416683158
3984 3983 -0.027328385176731546
3983 3984 -0.027328385176731505
3984 3984 0.5074793240825389
3985 3984 0.021431792103974612
3984 3985 0.02143179210397459
3985 3985 0.490011806769554
3986 3985 0.02291524410461121
3985 3986 0.022915244104611168
3986 3986 0.5012843928129044
3987 3986 0.018329558225830555
3986 3987 0.01832955822583051
3987 3987 0.49925518555685877
3988 3987 0.023231122124855244
3987 3988 0.023231122124855386
3988 3988 0.5056377660510897
3989 3988 0.015990644241440456
3988 3989 0.015990644241440456
3989 3989 0.50305431361523
3990 3989 -0.017402024052252794
3989 3990 -0.017402024052252822
3990 3990 0.5109152858743441
3991 3990 0.014850520102104782
3990 3991 0.014850520102104765
3991 3991 0.49923872816091863
3992 3991 0.014970635194516718
3991 3992 0.014970635194516699
3992 3992 0.4879969673749946
3993 3992 -0.015362741185222545
3992 3993 -0.01536274118522256
3993 3993 0.49290284966524583
3994 3993 -0.017922869818667145
3993 3994 -0.01792286981866708
3994 3994 0.5070709619025451
3995 3994 0.010195974052006456
3994 3995 0.010195974052006413
3995 3995 0.5018789234651357
3996 3995 0.012626406795311462
3995 3996 0.012626406795311525
3996 3996 0.5098490205337594
3997 3996 -0.008586263642453566
3996 3997 -0.008586263642453427
3997 3997 0.4873120049630236
3998 3997 -0.013536765805032961
3997 3998 -0.013536765805032838
3998 3998 0.4994669855905819
3999 3998 0.0037703797525123982
3998 3999 0.0037703797525121194
3999 3999 0.5032682259224612
4000 3999 0.004223199988815374
3999 4000 0.004223199988815374
4000 4000 0.49872192573103635
